[AdminPlayerList]
ColumnHeadings=("Player Name","Unique ID","IP")

[Browser_AddBuddy]
; EN: AddBuddyDesc.Caption="Add Buddy"
AddBuddyDesc.Caption="Afegeix Buddy"
; EN: BuddyEntryBox.Caption="Buddy Name: "
BuddyEntryBox.Caption="Nom de l'amic: "
; EN: CancelButton.Caption="CANCEL"
CancelButton.Caption="CANCEL · LAR"
; EN: OkButton.Caption="OK"
OkButton.Caption="D'acord"

[Browser_BuddyList]
ColumnHeadings=("Buddy Name")

[Browser_IRC]
; EN: SystemLabel="System"
SystemLabel="Sistema"
; EN: LeaveChannelCaption="LEAVE CHANNEL"
LeaveChannelCaption="DEIXAR EL CANAL"
; EN: LeavePrivateCaptionHead="CLOSE "
LeavePrivateCaptionHead="TANCA "
; EN: ChooseNewNickText="Choose A New Chat Nickname"
ChooseNewNickText="Trieu un sobrenom de xat nou"
; EN: MyBackButton.Caption="BACK"
MyBackButton.Caption="ESQUENA"
; EN: MyChangeNickButton.Caption="CHANGE NICK"
MyChangeNickButton.Caption="CANVIA DE NICK"

[Browser_IconKey]
; EN: DialogText.Caption="Server Icon Key"
DialogText.Caption="Clau d'icona del servidor"
; EN: OkButton.Caption="OK"
OkButton.Caption="D'acord"

[Browser_MOTD]
VersionString="Ver."
; EN: MyBackButton.Caption="BACK"
MyBackButton.Caption="ESQUENA"
; EN: MyRefreshButton.Caption="REFRESH"
MyRefreshButton.Caption="ACTUALITZACIÓ"
; EN: MyUpgradeButton.Caption="UPGRADE"
MyUpgradeButton.Caption="ACTUALITZACIÓ"

[Browser_OpenIP]
; EN: CancelButton.Caption="CANCEL"
CancelButton.Caption="CANCEL · LAR"
; EN: IpEntryBox.Caption="IP Address: "
IpEntryBox.Caption="Adreça IP: "
; EN: OkButton.Caption="OK"
OkButton.Caption="D'acord"
; EN: OpenIPDesc.Caption="Enter New IP Address"
OpenIPDesc.Caption="Introduïu una adreça IP nova"

[Browser_Page]
; EN: StartQueryString="Querying Master Server"
StartQueryString="Consulta del servidor mestre"
; EN: AuthFailString="Authentication Failed"
AuthFailString="L'autenticació ha fallat"
; EN: ConnFailString="Connection Failed - Retrying"
ConnFailString="La connexió ha fallat - S'està tornant a provar"
; EN: ConnTimeoutString="Connection Timed Out"
ConnTimeoutString="Temps de connexió esgotat"
; EN: QueryCompleteString="Query Complete!"
QueryCompleteString="Consulta completa!"
; EN: RefreshCompleteString="Refresh Complete!"
RefreshCompleteString="Actualització completa!"
; EN: ReadyString="Ready"
ReadyString="A punt"

[Browser_PlayersList]
ColumnHeadings=("Player Name","Score","Stats ID","Ping")

[Browser_Prefs]
; EN: ViewStatsStrings[0]="Any Servers"
ViewStatsStrings[0]="Qualsevol servidor"
; EN: ViewStatsStrings[1]="Only Stats Servers"
ViewStatsStrings[1]="Només servidors d'estadístiques"
; EN: ViewStatsStrings[2]="No Stats Servers"
ViewStatsStrings[2]="No hi ha servidors d'estadístiques"
; EN: MutatorModeStrings[0]="Any Mutators"
MutatorModeStrings[0]="Qualsevol mutador"
; EN: MutatorModeStrings[1]="No Mutators"
MutatorModeStrings[1]="Sense mutadors"
; EN: MutatorModeStrings[2]="This Mutator"
MutatorModeStrings[2]="Aquest mutador"
; EN: MutatorModeStrings[3]="Not This Mutator"
MutatorModeStrings[3]="No aquest mutador"
; EN: WeaponStayStrings[0]="Any Servers"
WeaponStayStrings[0]="Qualsevol servidor"
; EN: WeaponStayStrings[1]="Only Weapon Stay Servers"
WeaponStayStrings[1]="Només servidors Weapon Stay"
; EN: WeaponStayStrings[2]="No Weapon Stay Servers"
WeaponStayStrings[2]="No hi ha servidors Weapon Stay"
; EN: TranslocatorStrings[0]="Any Servers"
TranslocatorStrings[0]="Qualsevol servidor"
; EN: TranslocatorStrings[1]="Only Translocator Servers"
TranslocatorStrings[1]="Només servidors Translocator"
; EN: TranslocatorStrings[2]="No Translocator Servers"
TranslocatorStrings[2]="No hi ha servidors de translocació"
; EN: CustomQuery.Caption="Custom Query"
CustomQuery.Caption="Consulta personalitzada"
; EN: FilterTitle.Caption="Server Filtering Options:"
FilterTitle.Caption="Opcions de filtratge del servidor:"
; EN: MaxGamespeed.Caption="Max"
MaxGamespeed.Caption="Màx"
; EN: MinGamespeed.Caption="Game Speed Min"
MinGamespeed.Caption="Velocitat de joc Min"
; EN: MutatorModeCombo.Caption="Mutators"
MutatorModeCombo.Caption="Mutadors"
; EN: MyBackButton.Caption="BACK"
MyBackButton.Caption="ESQUENA"
; EN: MyKeyButton.Caption="ICON KEY"
MyKeyButton.Caption="CLAU ICONA"
; EN: NoBotServersCheckBox.Caption="No Servers With Bots"
NoBotServersCheckBox.Caption="No hi ha servidors amb bots"
; EN: NoEmptyCheckBox.Caption="No Empty Servers"
NoEmptyCheckBox.Caption="No hi ha servidors buits"
; EN: NoFullCheckBox.Caption="No Full Servers"
NoFullCheckBox.Caption="No hi ha servidors complets"
; EN: NoPasswdCheckBox.Caption="No Passworded Servers"
NoPasswdCheckBox.Caption="Sense servidors amb contrasenya"
; EN: OnlyStandardCheckBox.Caption="Only Standard Servers"
OnlyStandardCheckBox.Caption="Només servidors estàndard"
; EN: StatsViewCombo.Caption="Stats Servers"
StatsViewCombo.Caption="Servidors d'estadístiques"
; EN: TranslocatorCombo.Caption="Translocator"
TranslocatorCombo.Caption="Translocador"
WeaponStayCombo.Caption="WeaponStay"

[Browser_RulesList]
; EN: TrueString="Enabled"
TrueString="Habilitat"
; EN: FalseString="Disabled"
FalseString="Inhabilitat"
; EN: ServerModeString="Server Mode"
ServerModeString="Mode servidor"
; EN: DedicatedString="Dedicated"
DedicatedString="Dedicat"
; EN: NonDedicatedString="Non-Dedicated"
NonDedicatedString="No Dedicat"
; EN: AdminNameString="Server Admin"
AdminNameString="Administrador del servidor"
; EN: AdminEmailString="Admin Email"
AdminEmailString="Correu electrònic de l'administrador"
; EN: PasswordString="Requires Password"
PasswordString="Requereix contrasenya"
; EN: GameStatsString="UT2004 Stats"
GameStatsString="Estadístiques UT2004"
; EN: GameSpeedString="Game Speed"
GameSpeedString="Velocitat de joc"
; EN: MutatorString="Mutator"
MutatorString="Mutador"
; EN: BalanceTeamsString="Bots Balance Teams"
BalanceTeamsString="Equips d'equilibri de bots"
; EN: PlayersBalanceTeamsString="Balance Teams"
PlayersBalanceTeamsString="Equips d'equilibri"
; EN: FriendlyFireString="Friendly Fire"
FriendlyFireString="Foc amic"
; EN: GoalScoreString="Goal Score"
GoalScoreString="Gol puntuació"
; EN: TimeLimitString="Time Limit"
TimeLimitString="Termini"
; EN: MinPlayersString="Minimum Players (bots)"
MinPlayersString="Jugadors mínims (bots)"
; EN: TranslocatorString="Translocator"
TranslocatorString="Translocador"
; EN: WeaponStayString="Weapons Stay"
WeaponStayString="Les armes romanen"
ColumnHeadings=("Setting","Value")

[Browser_ServerListPageBase]
; EN: AddFavoriteButton.Caption="ADD FAVORITE"
AddFavoriteButton.Caption="AFEGEIX EL PREFERIT"
; EN: BackButton.Caption="BACK"
BackButton.Caption="ESQUENA"
; EN: JoinButton.Caption="JOIN"
JoinButton.Caption="UNEIX-TE"
; EN: RefreshButton.Caption="REFRESH LIST"
RefreshButton.Caption="ACTUALITZAR LLISTA"
; EN: SpectateButton.Caption="SPECTATE"
SpectateButton.Caption="ESPECTAT"

[Browser_ServerListPageBuddy]
; EN: AddBuddyCaption="ADD BUDDY"
AddBuddyCaption="AFEGIR AMIC"
; EN: RemoveBuddyCaption="REMOVE BUDDY"
RemoveBuddyCaption="TREURE AMIC"

[Browser_ServerListPageFavorites]
; EN: RemoveFavoriteCaption="REMOVE FAVORITE"
RemoveFavoriteCaption="ELIMINA EL PREFERIT"
; EN: AddIPCaption="ADD IP"
AddIPCaption="AFEGIR IP"
; EN: RePingCaption="RE-PING LIST"
RePingCaption="RE-PING LLISTA"

[Browser_ServerListPageMS]
; EN: QueryFinHead="Query Complete! Received: "
QueryFinHead="Consulta completa! Rebut: "
; EN: QueryFinTail=" Servers"
QueryFinTail=" Servidors"
; EN: PingRecvString="Pinging Servers"
PingRecvString="Servidors de ping"
; EN: MustUpgradeString="Upgrade available. Please refresh the News page."
MustUpgradeString="Actualització disponible. Si us plau, actualitzeu la pàgina de notícies."
; EN: RefreshFinHead="Pinging Complete! "
RefreshFinHead="Ping complet! "
; EN: RefreshFinMid=" Servers, "
RefreshFinMid=" servidors, "
; EN: RefreshFinTail=" Players"
RefreshFinTail=" Jugadors"
; EN: RePingServersCaption="RE-PING LIST"
RePingServersCaption="RE-PING LLISTA"
; EN: RefreshCaption="REFRESH LIST"
RefreshCaption="ACTUALITZAR LLISTA"

[Browser_ServerListPageMSCustom]
; EN: MyGameTypeLabel.Caption="Game Type"
MyGameTypeLabel.Caption="Tipus de joc"

[Browser_ServersList]
IconDescriptions=("Passworded","Stats Enabled","Latest Version","Listen Server","Instagib","Standard Server","UT Classic")
ColumnHeadings=(,"Server Name","Map","Players","Ping")

[DefaultCrosshairs]
; EN: Crosshair=((FriendlyName="Cross (1)"),(FriendlyName="Cross (2)"),(FriendlyName="Cross (3)"),(FriendlyName="Cross (4)"),(FriendlyName="Cross (5)"),(FriendlyName="Dot"),(FriendlyName="Pointer"),(FriendlyName="Triad (1)"),(FriendlyName="Triad (2)"),(FriendlyName="Triad (3)"),(FriendlyName="Bracket (1)"),(FriendlyName="Bracket (2)"),(FriendlyName="Circle (1)"),(FriendlyName="Circle (2)"))
Crosshair=((FriendlyName="creu (1)"),(FriendlyName="Creu (2)"),(FriendlyName="Creu (3)"),(FriendlyName="Creu (4)"),(FriendlyName="Creu (5)"),(FriendlyName="Punt"),(FriendlyName="Apuntador"),(FriendlyName="Tríada (1)"),(FriendlyName="Tríada (2)"),(FriendlyName="Tríada (3)"),(FriendlyName="Suport (1)"),(FriendlyName="Suport (2)"),(FriendlyName="Cercle (1)"),(FriendlyName="Cercle (2)"))

[ExtendedConsole]
; EN: AddedCurrentHead="Added Server:"
AddedCurrentHead="Servidor afegit:"
; EN: AddedCurrentTail="To Favorites!"
AddedCurrentTail="A Favorits!"
; EN: ServerFullMsg="Server is now full"
ServerFullMsg="Ara el servidor està ple"
; EN: SMStateName[0]="Speech Menu"
SMStateName[0]="Menú de parla"
; EN: SMStateName[1]="Voice Chat"
SMStateName[1]="Xat de veu"
; EN: SMStateName[2]="Acknowledge"
SMStateName[2]="Reconèixer"
; EN: SMStateName[3]="Friendly Fire"
SMStateName[3]="Foc amic"
; EN: SMStateName[4]="Order"
SMStateName[4]="Ordre"
; EN: SMStateName[5]="Other"
SMStateName[5]="Altres"
; EN: SMStateName[6]="Taunt"
SMStateName[6]="La burla"
SMStateName[7]="Taunt Anim"
; EN: SMStateName[8]="Player Select"
SMStateName[8]="Selecció de jugador"
; EN: SMChannelOptions[0]="Join"
SMChannelOptions[0]="Uneix-te"
; EN: SMChannelOptions[1]="Leave"
SMChannelOptions[1]="marxar"
; EN: SMChannelOptions[2]="Talk"
SMChannelOptions[2]="Parla"
; EN: SMAllString="[ALL]"
SMAllString="[TOTS]"
; EN: SMMoreString="[MORE]"
SMMoreString="[MÉS]"

[GUIController]
; EN: DesignModeHints=((Key=" Key",Description="                                Description"),(Key=" (F1)",Description="                                View this help screen"),(Key=" Ctrl + Alt + D",Description="                      Toggles design mode"),(Key=" Ctrl + Alt + E",Description="                      Toggles property editor mode"),(Key=" [Ctrl +] H",Description="                          Toggles active/focused info"),(Key=" [Ctrl +] I",Description="                          Toggle interactive mode"),(Key=" [Ctrl +] P",Description="                          Toggles full MenuOwner chains for active/focused"),(Key=" [Ctrl +] C",Description="                          Copy MoveControl position to clipboard"),(Key=" [Ctrl +] X",Description="                          Export MoveControl to clipboard"),(Key=" [Ctrl +] U",Description="                          Refresh the property window in the designer"),(Key=" [Ctrl +] Up/Down/Left/Right",Description="         Reposition MoveControl using arrow keys"),(Key=" [Ctrl +] +/-",Description="                        Resize MoveControl vertically"),(Key=" [Ctrl +] Num+/Num-",Description="                  Resize selected component horizontally"),(Key=" [Ctrl +] WheelUp",Description="                    Set MoveControl to MoveControl's menuowner"),(Key=" [Ctrl +] WheenDown",Description="                  Set MoveControl to MoveControl's focused control"),(Key=" [(Ctrl + Alt) +] MouseX/Y+LMouse",Description="    Reposition MoveControl using mouse"),(Key=" (Shift)",Description="                             Hides all design mode indicators"),(Key=" (Ctrl + Alt)",Description="                        View focus chain"),(Key=" [Ctrl +] Tab",Description="                        Select new MoveControl"),(Key=" [Ctrl +] LMouse",Description="                     Select new MoveControl"))
DesignModeHints=((Key=" clau",Description="                                Descripció"),(Key=" (F1)",Description="                                Visualitza aquesta pantalla d'ajuda"),(Key=" Ctrl + Alt + D",Description="                      Commuta el mode de disseny"),(Key=" Ctrl + Alt + E",Description="                      Commuta el mode d'editor de propietats"),(Key=" [Ctrl +] H",Description="                          Commuta la informació activa/enfocada"),(Key=" [Ctrl +] I",Description="                          Canvia el mode interactiu"),(Key=" [Ctrl +] P",Description="                          Commuta les cadenes completes de MenuOwner per activa/enfocada"),(Key=" [Ctrl +] C",Description="                          Copieu la posició de MoveControl al porta-retalls"),(Key=" [Ctrl +] X",Description="                          Exporta MoveControl al porta-retalls"),(Key=" [Ctrl +] U",Description="                          Actualitzeu la finestra de propietats al dissenyador"),(Key=" [Ctrl +] Amunt/Avall/Esquerra/Dreta",Description="         Reposicioneu MoveControl mitjançant les tecles de fletxa"),(Key=" [Ctrl +] +/-",Description="                        Canvia la mida de MoveControl verticalment"),(Key=" [Ctrl +] Núm+/Núm-",Description="                  Canvia la mida del component seleccionat horitzontalment"),(Key=" [Ctrl +] WheelUp",Description="                    Estableix MoveControl al propietari del menú de MoveControl"),(Key=" [Ctrl +] WheenDown",Description="                  Estableix MoveControl al control enfocat de MoveControl"),(Key=" [(Ctrl + Alt) +] RatolíX/Y+LMratolí",Description="    Reposicioneu MoveControl amb el ratolí"),(Key=" (Majús)",Description="                             Amaga tots els indicadors del mode de disseny"),(Key=" (Ctrl + Alt)",Description="                        Veure la cadena d'enfocament"),(Key=" [Ctrl +] Tab",Description="                        Seleccioneu el nou MoveControl"),(Key=" [Ctrl +] LMouse",Description="                     Seleccioneu el nou MoveControl"))

[GUIQuestionPage]
ButtonNames=("Ok","Cancel","Retry","Continue","Yes","No","Abort","Ignore")

[HudBTeamDeathMatch]
; EN: LinkEstablishedMessage="LINK ESTABLISHED"
LinkEstablishedMessage="ENLLAÇ ESTABLECIT"

[HudBase]
InstructionFontName="UT2003Fonts.jFontMono800x600"
; EN: LevelActionLoading="LOADING..."
LevelActionLoading="CARREGANT..."
; EN: LevelActionPaused="PAUSED"
LevelActionPaused="EN PAUSA"
LevelActionFontName="UT2003Fonts.FontMedium"
; EN: WonMatchPostFix=" won the match!"
WonMatchPostFix=" va guanyar el partit!"
; EN: WaitingToSpawn="Press [Fire] to join the match!"
WaitingToSpawn="Premeu [Foc] per unir-vos al partit!"
; EN: AtMenus="Press [ESC] to close menu"
AtMenus="Premeu [ESC] per tancar el menú"
; EN: YouveWonTheMatch="You've won the match!"
YouveWonTheMatch="Has guanyat el partit!"
; EN: YouveLostTheMatch="You've lost the match."
YouveLostTheMatch="Has perdut el partit."
; EN: NowViewing="Now viewing"
NowViewing="Ara mirant"
; EN: ScoreText="Score"
ScoreText="Puntuació"
; EN: InitialViewingString="Press Fire to View a different Player"
InitialViewingString="Premeu Foc per veure un reproductor diferent"
ProgressFontName="UT2003Fonts.FontMedium"
FontArrayNames[0]="UT2003Fonts.FontEurostile37"
FontArrayNames[1]="UT2003Fonts.FontEurostile29"
FontArrayNames[2]="UT2003Fonts.FontEurostile24"
FontArrayNames[3]="UT2003Fonts.FontEurostile21"
FontArrayNames[4]="UT2003Fonts.FontEurostile17"
FontArrayNames[5]="UT2003Fonts.FontEurostile14"
FontArrayNames[6]="UT2003Fonts.FontEurostile12"
FontArrayNames[7]="UT2003Fonts.FontEurostile9"
FontArrayNames[8]="UT2003Fonts.FontSmallText"

[HudCTeamDeathMatch]
; EN: LinkEstablishedMessage="LINK ESTABLISHED"
LinkEstablishedMessage="ENLLAÇ ESTABLECIT"

[IRCLink]
; EN: InvalidAddressText="Invalid server address, aborting."
InvalidAddressText="L'adreça del servidor no és vàlida, s'està avortant."
; EN: ErrorBindingText="Error binding local port, aborting."
ErrorBindingText="Error en vincular el port local, avortant."
; EN: ResolveFailedText="Failed to resolve server address, aborting."
ResolveFailedText="No s'ha pogut resoldre l'adreça del servidor, s'està avortant."
; EN: ConnectedText="Connected."
ConnectedText="Connectat."
; EN: ConnectingToText="Connecting to"
ConnectingToText="Connectant a"
; EN: TimeOutError="Timeout connecting to server."
TimeOutError="Temps d'espera de connexió al servidor."
; EN: InviteString="invites you to join"
InviteString="et convida a unir-te"
; EN: NickInUseText="Nickname Already In Use"
NickInUseText="Àlies ja en ús"
; EN: NickInvalidText="Nickname Is Invalid"
NickInvalidText="El sobrenom no és vàlid"

[IRC_NewNick]
; EN: NewNickEntry.Caption="New Nickname: "
NewNickEntry.Caption="Nou sobrenom: "
; EN: OkButton.Caption="OK"
OkButton.Caption="D'acord"

[IRC_Page]
; EN: HasLeftText="has left"
HasLeftText="ha deixat"
; EN: HasJoinedText="has joined"
HasJoinedText="s'ha unit"
; EN: WasKickedByText="was kicked by"
WasKickedByText="va ser colpejat per"
; EN: NowKnownAsText="is now known as"
NowKnownAsText="ara es coneix com"
; EN: QuitText="Quit"
QuitText="Surt"
; EN: SetsModeText="sets mode"
SetsModeText="mode de configuració"
; EN: NewTopicText="Topic"
NewTopicText="Tema"

[IRC_System]
; EN: NotInAChannelText="Not in a channel!"
NotInAChannelText="No en un canal!"
; EN: KickedFromText="You were kicked from"
KickedFromText="Et van expulsar"
; EN: ByText="by"
ByText="per"
; EN: IsAwayText="is away"
IsAwayText="està lluny"
; EN: ConnectText="CONNECT"
ConnectText="CONNECTAR"
; EN: DisconnectText="DISCONNECT"
DisconnectText="DESCONNECTAR"
; EN: MyChannelLabel.Caption="Channel"
MyChannelLabel.Caption="Canal"
; EN: MyJoinChannelButton.Caption="JOIN CHANNEL"
MyJoinChannelButton.Caption="UNIR-SE AL CANAL"
; EN: MyRemoveChannelButton.Caption="REMOVE CHANNEL"
MyRemoveChannelButton.Caption="ELIMINAR EL CANAL"
; EN: MyRemoveServerButton.Caption="REMOVE SERVER"
MyRemoveServerButton.Caption="ELIMINAR EL SERVIDOR"
; EN: MyServerLabel.Caption="Server"
MyServerLabel.Caption="Servidor"

[JoeTest]
; EN: TestButton1.Caption="Close Window"
TestButton1.Caption="Tanca la finestra"
TitleText.Caption="Joe's Amazing Test GUI"

[JoeTestPanelA]
; EN: TestButtonA.Caption="Wow"
TestButtonA.Caption="Vaja!"
; EN: TestButtonB.Caption="Damn"
TestButtonB.Caption="Maleït"

[ScoreBoardDeathMatch]
; EN: RankText="RANK"
RankText="RANG"
; EN: PlayerText="PLAYER"
PlayerText="JUGADOR"
; EN: PointsText="SCORE"
PointsText="PUNTUACIÓ"
; EN: TimeText="TIME:"
TimeText="TEMPS:"
PingText="PING:"
PLText="P/L:"
; EN: DeathsText="DEATHS"
DeathsText="DEFUNCIONS"
; EN: AdminText="ADMIN"
AdminText="ADMINISTRADOR"
NetText="NET"
; EN: FooterText="Elapsed Time:"
FooterText="Temps transcorregut:"
; EN: MatchIDText="UT2004 Stats Match ID"
MatchIDText="Identificador de partit d'estadístiques UT2004"
; EN: OutText="OUT"
OutText="FORA"
; EN: OutFireText="   You are OUT. Fire to view other players."
OutFireText="   Estàs FORA. Dispara per veure altres jugadors."
; EN: ReadyText="READY"
ReadyText="PREPARAT"
; EN: NotReadyText="NOT RDY"
NotReadyText="NO RDY"
; EN: SkillLevel[0]="NOVICE"
SkillLevel[0]="NOVICI"
; EN: SkillLevel[1]="AVERAGE"
SkillLevel[1]="MITJANA"
; EN: SkillLevel[2]="EXPERIENCED"
SkillLevel[2]="EXPERIÈNCIA"
; EN: SkillLevel[3]="SKILLED"
SkillLevel[3]="HABILITAT"
SkillLevel[4]="ADEPT"
; EN: SkillLevel[5]="MASTERFUL"
SkillLevel[5]="MASTER"
; EN: SkillLevel[6]="INHUMAN"
SkillLevel[6]="INHUMÀ"
; EN: SkillLevel[7]="GODLIKE"
SkillLevel[7]="COM DÉU"
; EN: MaxLives="MAX LIVES:"
MaxLives="MAX VIDES:"
; EN: FragLimit="FRAG LIMIT:"
FragLimit="LÍMIT DE FRAG:"
FPH="PPH"
; EN: GameType="GAME"
GameType="JOC"
; EN: MapName=" in "
MapName=" en "
; EN: Restart="   You were killed. Press Fire to respawn!"
Restart="   Et van matar. Premeu Foc per reaparèixer!"
; EN: Continue=" Press [Fire] to continue!"
Continue=" Premeu [Foc] per continuar!"
; EN: Ended="The match has ended."
Ended="El partit ha acabat."
; EN: TimeLimit="REMAINING TIME:"
TimeLimit="TEMPS RESTANT:"
Spacer=" "

[ScoreBoardTeamDeathMatch]
; EN: FragLimit="SCORE LIMIT:"
FragLimit="LÍMIT DE PUNTUACIÓ:"

[ServerBrowser]
MutantTypeName="Mutant"
; EN: InvasionTypeName="Invasion"
InvasionTypeName="Invasió"
; EN: LMSTypeName="Last Man Standing"
LMSTypeName="Últim home de peu"
MutantType="xMutantGame"
; EN: InvasionType="Invasion"
InvasionType="Invasió"
; EN: LMSType="xLastManStanding"
LMSType="xLastMan Standing"
; EN: MyBRServerListPage.PageCaption="Bombing Run"
MyBRServerListPage.PageCaption="Carrera de bombardeig"
; EN: MyBuddiesPage.PageCaption="Buddies"
MyBuddiesPage.PageCaption="Amics"
MyCTFServerListPage.PageCaption="CTF"
; EN: MyCustomServerListPage.PageCaption="Custom"
MyCustomServerListPage.PageCaption="Personalitzat"
MyDMServerListPage.PageCaption="DM"
; EN: MyDomServerListPage.PageCaption="Double Dom"
MyDomServerListPage.PageCaption="Doble Dom"
; EN: MyFavoritesPage.PageCaption="Favorites"
MyFavoritesPage.PageCaption="Preferits"
; EN: MyIRCPage.PageCaption="Chat"
MyIRCPage.PageCaption="Xatejar"
MyLANPage.PageCaption="LAN"
; EN: MyMOTDPage.PageCaption="News"
MyMOTDPage.PageCaption="Notícies"
; EN: MyPrefsPage.PageCaption="Filter"
MyPrefsPage.PageCaption="Filtre"
; EN: MyTDMServerListPage.PageCaption="Team DM"
MyTDMServerListPage.PageCaption="Equip DM"
; EN: ServerBrowserHeader.Caption="Server Browser"
ServerBrowserHeader.Caption="Navegador del servidor"

[Tab_AdminPlayerList]
; EN: AdminPlayerBan.Caption="Ban"
AdminPlayerBan.Caption="Prohibició"
; EN: AdminPlayerBan.Hint="Ban this player"
AdminPlayerBan.Hint="Prohibir aquest jugador"
; EN: AdminPlayerKick.Caption="Kick"
AdminPlayerKick.Caption="Patada"
; EN: AdminPlayerKick.Hint="Kick this Player"
AdminPlayerKick.Hint="Patear aquest jugador"

[Tab_AudioSettings]
; EN: AudioModes[0]="Software 3D Audio"
AudioModes[0]="Programari d'àudio 3D"
; EN: AudioModes[1]="Hardware 3D Audio"
AudioModes[1]="Maquinari d'àudio 3D"
; EN: AudioModes[2]="Hardware 3D Audio + EAX"
AudioModes[2]="Maquinari 3D Audio + EAX"
; EN: AudioModes[3]="Safe Mode"
AudioModes[3]="Mode segur"
; EN: VoiceModes[0]="All"
VoiceModes[0]="Tots"
; EN: VoiceModes[1]="No auto-taunts"
VoiceModes[1]="Sense burles automàtiques"
; EN: VoiceModes[2]="No taunts"
VoiceModes[2]="Sense burles"
; EN: VoiceModes[3]="None"
VoiceModes[3]="Cap"
; EN: AnnounceModes[0]="None"
AnnounceModes[0]="Cap"
; EN: AnnounceModes[1]="Minimal"
AnnounceModes[1]="Mínim"
; EN: AnnounceModes[2]="All"
AnnounceModes[2]="Tots"
; EN: AudioAnnounce.Caption="Announcements"
AudioAnnounce.Caption="Anuncis"
; EN: AudioAnnounce.Hint="Adjusts the amount of in-game announcements."
AudioAnnounce.Hint="Ajusta la quantitat d'anuncis dins del joc."
; EN: AudioAnnouncerPack.Caption="Announcer Voice"
AudioAnnouncerPack.Caption="Veu del locutor"
; EN: AudioAnnouncerPack.Hint="Select the Announcer for tonight's game."
AudioAnnouncerPack.Hint="Seleccioneu el locutor per al joc d'aquesta nit."
; EN: AudioAutoTaunt.Caption="Auto-Taunt"
AudioAutoTaunt.Caption="Burla automàtica"
; EN: AudioAutoTaunt.Hint="Enables your in-game player to automatically taunt opponents."
AudioAutoTaunt.Hint="Permet que el teu jugador del joc es mofi automàticament dels oponents."
; EN: AudioEffectsVolumeLabel.Caption="Effects Volume"
AudioEffectsVolumeLabel.Caption="Volum dels efectes"
; EN: AudioEffectsVolumeSlider.Hint="Changes the volume of all in game sound effects."
AudioEffectsVolumeSlider.Hint="Canvia el volum de tots els efectes de so del joc."
; EN: AudioLowDetail.Caption="Low Sound Detail"
AudioLowDetail.Caption="Detall de so baix"
; EN: AudioLowDetail.Hint="Lowers quality of sound."
AudioLowDetail.Hint="Disminueix la qualitat del so."
; EN: AudioMatureTaunts.Caption="Mature Taunts"
AudioMatureTaunts.Caption="Burles madures"
; EN: AudioMatureTaunts.Hint="Enables off-color commentary."
AudioMatureTaunts.Hint="Habilita els comentaris sense color."
; EN: AudioMessageBeep.Caption="Message Beep"
AudioMessageBeep.Caption="Pit del missatge"
; EN: AudioMessageBeep.Hint="Enables a beep when receiving a text message from other players."
AudioMessageBeep.Hint="Activa un bip quan es rep un missatge de text d'altres jugadors."
; EN: AudioMode.Caption="Audio Mode"
AudioMode.Caption="Mode d'àudio"
; EN: AudioMode.Hint="Changes the audio system mode."
AudioMode.Hint="Canvia el mode del sistema d'àudio."
; EN: AudioMusicVolumeLabel.Caption="Music Volume"
AudioMusicVolumeLabel.Caption="Volum de música"
; EN: AudioMusicVolumeSlider.Hint="Changes the volume of the background music."
AudioMusicVolumeSlider.Hint="Canvia el volum de la música de fons."
; EN: AudioPlayVoices.Caption="Play Voices"
AudioPlayVoices.Caption="Juga Voices"
; EN: AudioPlayVoices.Hint="Defines the types of voice messages to play."
AudioPlayVoices.Hint="Defineix els tipus de missatges de veu per reproduir."
; EN: AudioReverseStereo.Caption="Reverse Stereo"
AudioReverseStereo.Caption="Estèreo invers"
; EN: AudioReverseStereo.Hint="Reverses the left and right audio channels."
AudioReverseStereo.Hint="Inverteix els canals d'àudio esquerre i dret."
; EN: AudioVoiceVolumeLabel.Caption="Announcer Volume"
AudioVoiceVolumeLabel.Caption="Volum del locutor"
; EN: AudioVoiceVolumeSlider.Hint="Changes the volume of all in game voice messages."
AudioVoiceVolumeSlider.Hint="Canvia el volum de tots els missatges de veu del joc."

[Tab_ControlSettings]
; EN: Bindings=((KeyLabel="Movement"),(KeyLabel="Forward"),(KeyLabel="Backward"),(KeyLabel="Strafe Left"),(KeyLabel="Strafe Right"),(KeyLabel="Jump"),(KeyLabel="Walk"),(KeyLabel="Crouch"),(KeyLabel="Strafe Toggle"),(KeyLabel="Looking"),(KeyLabel="Turn Left"),(KeyLabel="Turn Right"),(KeyLabel="Look Up"),(KeyLabel="Look Down"),(KeyLabel="Center View"),(KeyLabel="Weapons"),(KeyLabel="Fire"),(KeyLabel="Alt-Fire"),(KeyLabel="Throw Weapon"),(KeyLabel="Best Weapon"),(KeyLabel="Next Weapon"),(KeyLabel="Prev Weapon"),(KeyLabel="Last Weapon"),(KeyLabel="Weapon Selection"),(KeyLabel="Super Weapon"),(KeyLabel="Shield Gun"),(KeyLabel="Assault Rifle"),(KeyLabel="Bio-Rifle"),(KeyLabel="Shock Rifle"),(KeyLabel="Link Gun"),(KeyLabel="Minigun"),(KeyLabel="Flak Cannon"),(KeyLabel="Rocket Launcher"),(KeyLabel="Lightning Rifle"),(KeyLabel="Translocator"),(KeyLabel="Communication"),(KeyLabel="Say"),(KeyLabel="Team Say"),(KeyLabel="Speech Menu"),(KeyLabel="Taunts"),(KeyLabel="Pelvic Thrust"),(KeyLabel="Ass Smack"),(KeyLabel="Throat Cut"),(KeyLabel="Hud"),(KeyLabel="Grow Hud"),(KeyLabel="Shrink Hud"),(KeyLabel="Miscellaneous"),(KeyLabel="Pause"),(KeyLabel="Screenshot"),(KeyLabel="Menu"),(KeyLabel="ScoreBoard"),(KeyLabel="ScoreBoard Toggle"),(KeyLabel="In Game Chat"),(KeyLabel="Server Info"))
Bindings=((KeyLabel="Moviment"),(KeyLabel="Endavant"),(KeyLabel="Enrere"),(KeyLabel="Strafe a l'esquerra"),(KeyLabel="Strafe Right"),(KeyLabel="Saltar"),(KeyLabel="Caminar"),(KeyLabel="Ajupir-se"),(KeyLabel="Alternativa de Strafe"),(KeyLabel="Mirant"),(KeyLabel="Giri a l'esquerra"),(KeyLabel="Giri a la dreta"),(KeyLabel="Cercar"),(KeyLabel="Mirar cap avall"),(KeyLabel="Vista central"),(KeyLabel="Armes"),(KeyLabel="Foc"),(KeyLabel="Alt-Foc"),(KeyLabel="Arma de llançament"),(KeyLabel="Millor arma"),(KeyLabel="Següent arma"),(KeyLabel="Anterior Arma"),(KeyLabel="Última arma"),(KeyLabel="Selecció d'armes"),(KeyLabel="Súper arma"),(KeyLabel="Escut de pistola"),(KeyLabel="Rifle d'assalt"),(KeyLabel="Bio-Rifle"),(KeyLabel="Rifle de xoc"),(KeyLabel="Link Gun"),(KeyLabel="Minigun"),(KeyLabel="Flak Cannon"),(KeyLabel="Llançacoets"),(KeyLabel="Rifle llamp"),(KeyLabel="Translocador"),(KeyLabel="Comunicació"),(KeyLabel="Digues"),(KeyLabel="Equip diu"),(KeyLabel="Menú de parla"),(KeyLabel="Burles"),(KeyLabel="Empensió pèlvica"),(KeyLabel="Ass Smack"),(KeyLabel="Tall de gola"),(KeyLabel="Hud"),(KeyLabel="Creix Hud"),(KeyLabel="Shrink Hud"),(KeyLabel="Divers"),(KeyLabel="Pausa"),(KeyLabel="Captura de pantalla"),(KeyLabel="Menú"),(KeyLabel="Tauler de puntuació"),(KeyLabel="Canvi de tauler de resultats"),(KeyLabel="Al xat del joc"),(KeyLabel="Informació del servidor"))
Labels=("Movement","Forward","Backward","Strafe Left","Strafe Right","Jump","Walk","Crouch","Strafe Toggle","Looking","Turn Left","Turn Right","Look Up","Look Down","Center View","Weapons","Fire","Alt-Fire","Throw Weapon","Best Weapon","Next Weapon","Prev Weapon","Last Weapon","Weapon Selection","Super Weapon","Shield Gun","Assault Rifle","Bio-Rifle","Shock Rifle","Link Gun","Minigun","Flak Cannon","Rocket Launcher","Lightning Rifle","Translocator","Communication","Say","Team Say","Speech Menu","Taunts","Pelvic Thrust","Ass Smack","Throat Cut","Hud","Grow Hud","Shrink Hud","Miscellaneous","Pause","Screenshot","Menu","ScoreBoard","ScoreBoard Toggle","In Game Chat","Server Info")
Header="["
; EN: Footer="] Perform this action "
Footer="] Realitzeu aquesta acció "
; EN: KeyConfigAliasLabel.Caption="Action"
KeyConfigAliasLabel.Caption="Acció"
; EN: KeyConfigAliasLabel2.Caption="Key 1"
KeyConfigAliasLabel2.Caption="Clau 1"
; EN: KeyConfigAliasLabel3.Caption="Key 2"
KeyConfigAliasLabel3.Caption="Clau 2"
; EN: KeyConfigKeyList.Hint="Select Control to config"
KeyConfigKeyList.Hint="Seleccioneu Control per configurar"
KeyResetButton.Caption="RESET"
; EN: KeyResetButton.Hint="Reset keys to default values"
KeyResetButton.Hint="Restableix les claus als valors predeterminats"

[Tab_DetailSettings]
; EN: DetailLevels[0]="Lowest"
DetailLevels[0]="El més baix"
; EN: DetailLevels[1]="Lower"
DetailLevels[1]="Més baix"
; EN: DetailLevels[2]="Low"
DetailLevels[2]="baix"
DetailLevels[3]="Normal"
; EN: DetailLevels[4]="High"
DetailLevels[4]="Alt"
; EN: DetailLevels[5]="Higher"
DetailLevels[5]="Més alt"
; EN: DetailLevels[6]="Highest"
DetailLevels[6]="El més alt"
; EN: DetailActorDetail.Caption="World Detail"
DetailActorDetail.Caption="Detall del món"
; EN: DetailActorDetail.Hint="Changes the level of detail used for optional geometry and effects."
DetailActorDetail.Hint="Canvia el nivell de detall utilitzat per a la geometria i els efectes opcionals."