[AdminPlayerList]
ColumnHeadings=("Player Name","Unique ID","IP")

[Browser_AddBuddy]
; EN: AddBuddyDesc.Caption="Add Buddy"
AddBuddyDesc.Caption="Freund hinzufügen"
; EN: BuddyEntryBox.Caption="Buddy Name: "
BuddyEntryBox.Caption="Name des Freundes: "
; EN: CancelButton.Caption="CANCEL"
CancelButton.Caption="ABBRECHEN"
OkButton.Caption="OK"

[Browser_BuddyList]
ColumnHeadings=("Buddy Name")

[Browser_IRC]
SystemLabel="System"
; EN: LeaveChannelCaption="LEAVE CHANNEL"
LeaveChannelCaption="KANAL VERLASSEN"
; EN: LeavePrivateCaptionHead="CLOSE "
LeavePrivateCaptionHead="NAH DRAN "
; EN: ChooseNewNickText="Choose A New Chat Nickname"
ChooseNewNickText="Wählen Sie einen neuen Chat-Spitznamen"
; EN: MyBackButton.Caption="BACK"
MyBackButton.Caption="ZURÜCK"
; EN: MyChangeNickButton.Caption="CHANGE NICK"
MyChangeNickButton.Caption="NICK ÄNDERN"

[Browser_IconKey]
; EN: DialogText.Caption="Server Icon Key"
DialogText.Caption="Server-Symbolschlüssel"
OkButton.Caption="OK"

[Browser_MOTD]
VersionString="Ver."
; EN: MyBackButton.Caption="BACK"
MyBackButton.Caption="ZURÜCK"
; EN: MyRefreshButton.Caption="REFRESH"
MyRefreshButton.Caption="AKTUALISIERUNG"
; EN: MyUpgradeButton.Caption="UPGRADE"
MyUpgradeButton.Caption="AKTUALISIERUNG"

[Browser_OpenIP]
; EN: CancelButton.Caption="CANCEL"
CancelButton.Caption="ABBRECHEN"
; EN: IpEntryBox.Caption="IP Address: "
IpEntryBox.Caption="IP Adresse: "
OkButton.Caption="OK"
; EN: OpenIPDesc.Caption="Enter New IP Address"
OpenIPDesc.Caption="Neue IP-Adresse eingeben"

[Browser_Page]
; EN: StartQueryString="Querying Master Server"
StartQueryString="Abfrage des Masterservers"
; EN: AuthFailString="Authentication Failed"
AuthFailString="Authentifizierung fehlgeschlagen"
; EN: ConnFailString="Connection Failed - Retrying"
ConnFailString="Verbindung fehlgeschlagen - erneut versuchen"
; EN: ConnTimeoutString="Connection Timed Out"
ConnTimeoutString="Zeitüberschreitung der Verbindung"
; EN: QueryCompleteString="Query Complete!"
QueryCompleteString="Abfrage abgeschlossen!"
; EN: RefreshCompleteString="Refresh Complete!"
RefreshCompleteString="Aktualisieren abgeschlossen!"
; EN: ReadyString="Ready"
ReadyString="Bereit"

[Browser_PlayersList]
ColumnHeadings=("Player Name","Score","Stats ID","Ping")

[Browser_Prefs]
; EN: ViewStatsStrings[0]="Any Servers"
ViewStatsStrings[0]="Beliebige Server"
; EN: ViewStatsStrings[1]="Only Stats Servers"
ViewStatsStrings[1]="Nur Statistikserver"
; EN: ViewStatsStrings[2]="No Stats Servers"
ViewStatsStrings[2]="Keine Statistikserver"
; EN: MutatorModeStrings[0]="Any Mutators"
MutatorModeStrings[0]="Alle Mutatoren"
; EN: MutatorModeStrings[1]="No Mutators"
MutatorModeStrings[1]="Keine Mutatoren"
; EN: MutatorModeStrings[2]="This Mutator"
MutatorModeStrings[2]="Dieser Mutator"
; EN: MutatorModeStrings[3]="Not This Mutator"
MutatorModeStrings[3]="Nicht dieser Mutator"
; EN: WeaponStayStrings[0]="Any Servers"
WeaponStayStrings[0]="Beliebige Server"
; EN: WeaponStayStrings[1]="Only Weapon Stay Servers"
WeaponStayStrings[1]="Nur Waffen bleiben Server"
; EN: WeaponStayStrings[2]="No Weapon Stay Servers"
WeaponStayStrings[2]="Keine Waffen bleiben Server"
; EN: TranslocatorStrings[0]="Any Servers"
TranslocatorStrings[0]="Beliebige Server"
; EN: TranslocatorStrings[1]="Only Translocator Servers"
TranslocatorStrings[1]="Nur Translocator-Server"
; EN: TranslocatorStrings[2]="No Translocator Servers"
TranslocatorStrings[2]="Keine Translocator-Server"
; EN: CustomQuery.Caption="Custom Query"
CustomQuery.Caption="Benutzerdefinierte Abfrage"
; EN: FilterTitle.Caption="Server Filtering Options:"
FilterTitle.Caption="Server-Filteroptionen:"
MaxGamespeed.Caption="Max"
; EN: MinGamespeed.Caption="Game Speed Min"
MinGamespeed.Caption="Spielgeschwindigkeit Min"
; EN: MutatorModeCombo.Caption="Mutators"
MutatorModeCombo.Caption="Mutatoren"
; EN: MyBackButton.Caption="BACK"
MyBackButton.Caption="ZURÜCK"
; EN: MyKeyButton.Caption="ICON KEY"
MyKeyButton.Caption="SYMBOL-SCHLÜSSEL"
; EN: NoBotServersCheckBox.Caption="No Servers With Bots"
NoBotServersCheckBox.Caption="Keine Server mit Bots"
; EN: NoEmptyCheckBox.Caption="No Empty Servers"
NoEmptyCheckBox.Caption="Keine leeren Server"
; EN: NoFullCheckBox.Caption="No Full Servers"
NoFullCheckBox.Caption="Keine vollständigen Server"
; EN: NoPasswdCheckBox.Caption="No Passworded Servers"
NoPasswdCheckBox.Caption="Keine passwortgeschützten Server"
; EN: OnlyStandardCheckBox.Caption="Only Standard Servers"
OnlyStandardCheckBox.Caption="Nur Standardserver"
; EN: StatsViewCombo.Caption="Stats Servers"
StatsViewCombo.Caption="Statistikserver"
; EN: TranslocatorCombo.Caption="Translocator"
TranslocatorCombo.Caption="Übersetzer"
; EN: WeaponStayCombo.Caption="WeaponStay"
WeaponStayCombo.Caption="Waffenaufenthalt"

[Browser_RulesList]
; EN: TrueString="Enabled"
TrueString="Ermöglicht"
; EN: FalseString="Disabled"
FalseString="Behinderte"
; EN: ServerModeString="Server Mode"
ServerModeString="Servermodus"
; EN: DedicatedString="Dedicated"
DedicatedString="Gewidmet"
; EN: NonDedicatedString="Non-Dedicated"
NonDedicatedString="Nicht dediziert"
; EN: AdminNameString="Server Admin"
AdminNameString="Server-Admin"
; EN: AdminEmailString="Admin Email"
AdminEmailString="Administrator-E-Mail"
; EN: PasswordString="Requires Password"
PasswordString="Erfordert Passwort"
; EN: GameStatsString="UT2004 Stats"
GameStatsString="UT2004-Statistiken"
; EN: GameSpeedString="Game Speed"
GameSpeedString="Spielgeschwindigkeit"
MutatorString="Mutator"
; EN: BalanceTeamsString="Bots Balance Teams"
BalanceTeamsString="Bots-Balance-Teams"
; EN: PlayersBalanceTeamsString="Balance Teams"
PlayersBalanceTeamsString="Balance-Teams"
; EN: FriendlyFireString="Friendly Fire"
FriendlyFireString="Teambeschuss"
; EN: GoalScoreString="Goal Score"
GoalScoreString="Torstand"
; EN: TimeLimitString="Time Limit"
TimeLimitString="Zeitlimit"
; EN: MinPlayersString="Minimum Players (bots)"
MinPlayersString="Mindestspieler (Bots)"
; EN: TranslocatorString="Translocator"
TranslocatorString="Übersetzer"
; EN: WeaponStayString="Weapons Stay"
WeaponStayString="Waffen bleiben"
ColumnHeadings=("Setting","Value")

[Browser_ServerListPageBase]
; EN: AddFavoriteButton.Caption="ADD FAVORITE"
AddFavoriteButton.Caption="FAVORIT HINZUFÜGEN"
; EN: BackButton.Caption="BACK"
BackButton.Caption="ZURÜCK"
; EN: JoinButton.Caption="JOIN"
JoinButton.Caption="BEITRETEN"
; EN: RefreshButton.Caption="REFRESH LIST"
RefreshButton.Caption="LISTE AKTUALISIEREN"
; EN: SpectateButton.Caption="SPECTATE"
SpectateButton.Caption="ZUSCHAUEN"

[Browser_ServerListPageBuddy]
; EN: AddBuddyCaption="ADD BUDDY"
AddBuddyCaption="FREUND HINZUFÜGEN"
; EN: RemoveBuddyCaption="REMOVE BUDDY"
RemoveBuddyCaption="BUDDY ENTFERNEN"

[Browser_ServerListPageFavorites]
; EN: RemoveFavoriteCaption="REMOVE FAVORITE"
RemoveFavoriteCaption="FAVORITEN ENTFERNEN"
; EN: AddIPCaption="ADD IP"
AddIPCaption="IP HINZUFÜGEN"
; EN: RePingCaption="RE-PING LIST"
RePingCaption="RE-PING-LISTE"

[Browser_ServerListPageMS]
; EN: QueryFinHead="Query Complete! Received: "
QueryFinHead="Abfrage abgeschlossen! Empfangen: "
; EN: QueryFinTail=" Servers"
QueryFinTail=" Server"
; EN: PingRecvString="Pinging Servers"
PingRecvString="Ping-Server"
; EN: MustUpgradeString="Upgrade available. Please refresh the News page."
MustUpgradeString="Upgrade verfügbar. Bitte aktualisieren Sie die News-Seite."
; EN: RefreshFinHead="Pinging Complete! "
RefreshFinHead="Pingen abgeschlossen! "
; EN: RefreshFinMid=" Servers, "
RefreshFinMid=" Server, "
; EN: RefreshFinTail=" Players"
RefreshFinTail=" Spieler"
; EN: RePingServersCaption="RE-PING LIST"
RePingServersCaption="RE-PING-LISTE"
; EN: RefreshCaption="REFRESH LIST"
RefreshCaption="LISTE AKTUALISIEREN"

[Browser_ServerListPageMSCustom]
; EN: MyGameTypeLabel.Caption="Game Type"
MyGameTypeLabel.Caption="Spiel Typ"

[Browser_ServersList]
IconDescriptions=("Passworded","Stats Enabled","Latest Version","Listen Server","Instagib","Standard Server","UT Classic")
ColumnHeadings=(,"Server Name","Map","Players","Ping")

[DefaultCrosshairs]
; EN: Crosshair=((FriendlyName="Cross (1)"),(FriendlyName="Cross (2)"),(FriendlyName="Cross (3)"),(FriendlyName="Cross (4)"),(FriendlyName="Cross (5)"),(FriendlyName="Dot"),(FriendlyName="Pointer"),(FriendlyName="Triad (1)"),(FriendlyName="Triad (2)"),(FriendlyName="Triad (3)"),(FriendlyName="Bracket (1)"),(FriendlyName="Bracket (2)"),(FriendlyName="Circle (1)"),(FriendlyName="Circle (2)"))
Crosshair=((FriendlyName="Kreuz (1)"),(FriendlyName="Kreuz (2)"),(FriendlyName="Kreuz (3)"),(FriendlyName="Kreuz (4)"),(FriendlyName="Kreuz (5)"),(FriendlyName="Punkt"),(FriendlyName="Zeiger"),(FriendlyName="Dreiklang (1)"),(FriendlyName="Dreiklang (2)"),(FriendlyName="Dreiklang (3)"),(FriendlyName="Halterung (1)"),(FriendlyName="Halterung (2)"),(FriendlyName="Kreis (1)"),(FriendlyName="Kreis (2)"))

[ExtendedConsole]
; EN: AddedCurrentHead="Added Server:"
AddedCurrentHead="Hinzugefügter Server:"
; EN: AddedCurrentTail="To Favorites!"
AddedCurrentTail="Zu Favoriten!"
; EN: ServerFullMsg="Server is now full"
ServerFullMsg="Server ist jetzt voll"
; EN: SMStateName[0]="Speech Menu"
SMStateName[0]="Sprachmenü"
; EN: SMStateName[1]="Voice Chat"
SMStateName[1]="Sprachchat"
; EN: SMStateName[2]="Acknowledge"
SMStateName[2]="Anerkennen"
; EN: SMStateName[3]="Friendly Fire"
SMStateName[3]="Teambeschuss"
; EN: SMStateName[4]="Order"
SMStateName[4]="Befehl"
; EN: SMStateName[5]="Other"
SMStateName[5]="Sonstiges"
; EN: SMStateName[6]="Taunt"
SMStateName[6]="Spott"
; EN: SMStateName[7]="Taunt Anim"
SMStateName[7]="Anime verspotten"
; EN: SMStateName[8]="Player Select"
SMStateName[8]="Spielerauswahl"
; EN: SMChannelOptions[0]="Join"
SMChannelOptions[0]="Verbinden"
; EN: SMChannelOptions[1]="Leave"
SMChannelOptions[1]="Verlassen"
; EN: SMChannelOptions[2]="Talk"
SMChannelOptions[2]="Sprechen"
; EN: SMAllString="[ALL]"
SMAllString="[ALLE]"
; EN: SMMoreString="[MORE]"
SMMoreString="[MEHR]"

[GUIController]
; EN: DesignModeHints=((Key=" Key",Description="                                Description"),(Key=" (F1)",Description="                                View this help screen"),(Key=" Ctrl + Alt + D",Description="                      Toggles design mode"),(Key=" Ctrl + Alt + E",Description="                      Toggles property editor mode"),(Key=" [Ctrl +] H",Description="                          Toggles active/focused info"),(Key=" [Ctrl +] I",Description="                          Toggle interactive mode"),(Key=" [Ctrl +] P",Description="                          Toggles full MenuOwner chains for active/focused"),(Key=" [Ctrl +] C",Description="                          Copy MoveControl position to clipboard"),(Key=" [Ctrl +] X",Description="                          Export MoveControl to clipboard"),(Key=" [Ctrl +] U",Description="                          Refresh the property window in the designer"),(Key=" [Ctrl +] Up/Down/Left/Right",Description="         Reposition MoveControl using arrow keys"),(Key=" [Ctrl +] +/-",Description="                        Resize MoveControl vertically"),(Key=" [Ctrl +] Num+/Num-",Description="                  Resize selected component horizontally"),(Key=" [Ctrl +] WheelUp",Description="                    Set MoveControl to MoveControl's menuowner"),(Key=" [Ctrl +] WheenDown",Description="                  Set MoveControl to MoveControl's focused control"),(Key=" [(Ctrl + Alt) +] MouseX/Y+LMouse",Description="    Reposition MoveControl using mouse"),(Key=" (Shift)",Description="                             Hides all design mode indicators"),(Key=" (Ctrl + Alt)",Description="                        View focus chain"),(Key=" [Ctrl +] Tab",Description="                        Select new MoveControl"),(Key=" [Ctrl +] LMouse",Description="                     Select new MoveControl"))
DesignModeHints=((Key=" Taste",Description="                                Beschreibung"),(Key=" (F1)",Description="                                Diesen Hilfebildschirm anzeigen"),(Key=" Strg + Alt + D",Description="                      Schaltet den Designmodus um"),(Key=" Strg + Alt + E",Description="                      Schaltet den Eigenschaftseditormodus um"),(Key=" [Strg +] H",Description="                          Schaltet aktive/fokussierte Informationen um"),(Key=" [Strg +] Ich",Description="                          Interaktiven Modus umschalten"),(Key=" [Strg +] P",Description="                          Schaltet vollständige MenuOwner-Ketten für aktiv/fokussiert um"),(Key=" [Strg +] C",Description="                          MoveControl-Position in die Zwischenablage kopieren"),(Key=" [Strg +] X",Description="                          MoveControl in die Zwischenablage exportieren"),(Key=" [Strg +] U",Description="                          Aktualisieren Sie das Eigenschaftsfenster im Designer"),(Key=" [Strg +] Oben/Unten/Links/Rechts",Description="         MoveControl mit den Pfeiltasten neu positionieren"),(Key=" [Strg +] +/-",Description="                        Verschieben Sie die Größe von MoveControl vertikal"),(Key=" [Strg +] Num+/Num-",Description="                  Größe der ausgewählten Komponente horizontal ändern"),(Key=" [Strg +] WheelUp",Description="                    Setzen Sie MoveControl auf den Menüeigentümer von MoveControl"),(Key=" [Strg +] WheenDown",Description="                  Setzen Sie MoveControl auf das fokussierte Steuerelement von MoveControl"),(Key=" [(Strg + Alt) +] MausX/Y+LMaus",Description="    MoveControl mit der Maus neu positionieren"),(Key=" (Schicht)",Description="                             Blendet alle Designmodus-Anzeigen aus"),(Key=" (Strg + Alt)",Description="                        Fokuskette anzeigen"),(Key=" [Strg +] Tabulator",Description="                        Wählen Sie neue MoveControl"),(Key=" [Strg +] LMaus",Description="                     Wählen Sie neue MoveControl"))

[GUIQuestionPage]
ButtonNames=("Ok","Cancel","Retry","Continue","Yes","No","Abort","Ignore")

[HudBTeamDeathMatch]
; EN: LinkEstablishedMessage="LINK ESTABLISHED"
LinkEstablishedMessage="LINK ERFÜLLT"

[HudBase]
InstructionFontName="UT2003Fonts.jFontMono800x600"
; EN: LevelActionLoading="LOADING..."
LevelActionLoading="WIRD GELADEN..."
LevelActionPaused="PAUSED"
LevelActionFontName="UT2003Fonts.FontMedium"
; EN: WonMatchPostFix=" won the match!"
WonMatchPostFix=" gewonnen das Spiel!"
; EN: WaitingToSpawn="Press [Fire] to join the match!"
WaitingToSpawn="Drücken Sie [Feuer], um dem Spiel beizutreten!"
; EN: AtMenus="Press [ESC] to close menu"
AtMenus="Drücken Sie [ESC], um das Menü zu schließen"
; EN: YouveWonTheMatch="You've won the match!"
YouveWonTheMatch="Sie haben das Spiel gewonnen!"
; EN: YouveLostTheMatch="You've lost the match."
YouveLostTheMatch="Sie haben das Spiel verloren."
; EN: NowViewing="Now viewing"
NowViewing="Jetzt ansehen"
; EN: ScoreText="Score"
ScoreText="Punktzahl"
; EN: InitialViewingString="Press Fire to View a different Player"
InitialViewingString="Drücken Sie Feuer, um einen anderen Spieler anzuzeigen"
ProgressFontName="UT2003Fonts.FontMedium"
FontArrayNames[0]="UT2003Fonts.FontEurostile37"
FontArrayNames[1]="UT2003Fonts.FontEurostile29"
FontArrayNames[2]="UT2003Fonts.FontEurostile24"
FontArrayNames[3]="UT2003Fonts.FontEurostile21"
FontArrayNames[4]="UT2003Fonts.FontEurostile17"
FontArrayNames[5]="UT2003Fonts.FontEurostile14"
FontArrayNames[6]="UT2003Fonts.FontEurostile12"
FontArrayNames[7]="UT2003Fonts.FontEurostile9"
FontArrayNames[8]="UT2003Fonts.FontSmallText"

[HudCTeamDeathMatch]
; EN: LinkEstablishedMessage="LINK ESTABLISHED"
LinkEstablishedMessage="LINK ERFÜLLT"

[IRCLink]
; EN: InvalidAddressText="Invalid server address, aborting."
InvalidAddressText="Ungültige Serveradresse, Abbruch."
; EN: ErrorBindingText="Error binding local port, aborting."
ErrorBindingText="Fehler beim Binden des lokalen Ports, Abbruch."
; EN: ResolveFailedText="Failed to resolve server address, aborting."
ResolveFailedText="Fehler beim Auflösen der Serveradresse, Abbruch."
; EN: ConnectedText="Connected."
ConnectedText="In Verbindung gebracht."
; EN: ConnectingToText="Connecting to"
ConnectingToText="Verbinden mit"
; EN: TimeOutError="Timeout connecting to server."
TimeOutError="Zeitüberschreitung beim Herstellen einer Verbindung zum Server."
; EN: InviteString="invites you to join"
InviteString="lädt dich ein mitzumachen"
; EN: NickInUseText="Nickname Already In Use"
NickInUseText="Spitzname wird bereits verwendet"
; EN: NickInvalidText="Nickname Is Invalid"
NickInvalidText="Spitzname ist ungültig"

[IRC_NewNick]
; EN: NewNickEntry.Caption="New Nickname: "
NewNickEntry.Caption="Neuer Spitzname: "
OkButton.Caption="OK"

[IRC_Page]
; EN: HasLeftText="has left"
HasLeftText="hat verlassen"
; EN: HasJoinedText="has joined"
HasJoinedText="ist beigetreten"
; EN: WasKickedByText="was kicked by"
WasKickedByText="wurde getreten von"
; EN: NowKnownAsText="is now known as"
NowKnownAsText="ist jetzt bekannt als"
; EN: QuitText="Quit"
QuitText="Aufhören"
; EN: SetsModeText="sets mode"
SetsModeText="stellt den Modus ein"
; EN: NewTopicText="Topic"
NewTopicText="Thema"

[IRC_System]
; EN: NotInAChannelText="Not in a channel!"
NotInAChannelText="Nicht in einem Kanal!"
; EN: KickedFromText="You were kicked from"
KickedFromText="Du wurdest rausgeschmissen"
; EN: ByText="by"
ByText="von"
; EN: IsAwayText="is away"
IsAwayText="ist weg"
; EN: ConnectText="CONNECT"
ConnectText="VERBINDEN"
; EN: DisconnectText="DISCONNECT"
DisconnectText="TRENNEN"
; EN: MyChannelLabel.Caption="Channel"
MyChannelLabel.Caption="Kanal"
; EN: MyJoinChannelButton.Caption="JOIN CHANNEL"
MyJoinChannelButton.Caption="KANAL BEITRETEN"
; EN: MyRemoveChannelButton.Caption="REMOVE CHANNEL"
MyRemoveChannelButton.Caption="KANAL ENTFERNEN"
; EN: MyRemoveServerButton.Caption="REMOVE SERVER"
MyRemoveServerButton.Caption="SERVER ENTFERNEN"
MyServerLabel.Caption="Server"

[JoeTest]
; EN: TestButton1.Caption="Close Window"
TestButton1.Caption="Fenster schließen"
; EN: TitleText.Caption="Joe's Amazing Test GUI"
TitleText.Caption="Joes erstaunliche Test-GUI"

[JoeTestPanelA]
; EN: TestButtonA.Caption="Wow"
TestButtonA.Caption="Beeindruckend"
; EN: TestButtonB.Caption="Damn"
TestButtonB.Caption="Verdammt"

[ScoreBoardDeathMatch]
; EN: RankText="RANK"
RankText="RANG"
; EN: PlayerText="PLAYER"
PlayerText="SPIELER"
; EN: PointsText="SCORE"
PointsText="SPIELSTAND"
; EN: TimeText="TIME:"
TimeText="ZEIT:"
; EN: PingText="PING:"
PingText="KLINGELN:"
; EN: PLText="P/L:"
PLText="G/V:"
; EN: DeathsText="DEATHS"
DeathsText="TODESFÄLLE"
; EN: AdminText="ADMIN"
AdminText="ADMINISTRATOR"
; EN: NetText="NET"
NetText="NETZ"
; EN: FooterText="Elapsed Time:"
FooterText="Verstrichene Zeit:"
; EN: MatchIDText="UT2004 Stats Match ID"
MatchIDText="UT2004-Statistik-Match-ID"
; EN: OutText="OUT"
OutText="AUS"
; EN: OutFireText="   You are OUT. Fire to view other players."
OutFireText="   Du bist raus. Feuere, um andere Spieler zu sehen."
; EN: ReadyText="READY"
ReadyText="BEREIT"
; EN: NotReadyText="NOT RDY"
NotReadyText="NICHT RDY"
; EN: SkillLevel[0]="NOVICE"
SkillLevel[0]="ANFÄNGER"
; EN: SkillLevel[1]="AVERAGE"
SkillLevel[1]="DURCHSCHNITT"
; EN: SkillLevel[2]="EXPERIENCED"
SkillLevel[2]="ERFAHREN"
; EN: SkillLevel[3]="SKILLED"
SkillLevel[3]="AUSGEBILDET"
; EN: SkillLevel[4]="ADEPT"
SkillLevel[4]="GESCHICKT"
SkillLevel[5]="MASTERFUL"
; EN: SkillLevel[6]="INHUMAN"
SkillLevel[6]="UNMENSCHLICH"
; EN: SkillLevel[7]="GODLIKE"
SkillLevel[7]="GÖTTLICH"
; EN: MaxLives="MAX LIVES:"
MaxLives="MAX LEBEN:"
; EN: FragLimit="FRAG LIMIT:"
FragLimit="FRAGGRENZE:"
FPH="PPH"
; EN: GameType="GAME"
GameType="SPIEL"
MapName=" in "
; EN: Restart="   You were killed. Press Fire to respawn!"
Restart="   Sie wurden getötet. Drücken Sie Feuer, um zu respawnen!"
; EN: Continue=" Press [Fire] to continue!"
Continue=" Drücken Sie [Feuer], um fortzufahren!"
; EN: Ended="The match has ended."
Ended="Das Spiel ist beendet."
; EN: TimeLimit="REMAINING TIME:"
TimeLimit="VERBLEIBENDE ZEIT:"
Spacer=" "

[ScoreBoardTeamDeathMatch]
; EN: FragLimit="SCORE LIMIT:"
FragLimit="PUNKTEGRENZE:"

[ServerBrowser]
MutantTypeName="Mutant"
InvasionTypeName="Invasion"
; EN: LMSTypeName="Last Man Standing"
LMSTypeName="Der letzte Mann, der steht"
; EN: MutantType="xMutantGame"
MutantType="xMutantSpiel"
InvasionType="Invasion"
LMSType="xLastManStanding"
; EN: MyBRServerListPage.PageCaption="Bombing Run"
MyBRServerListPage.PageCaption="Bombenangriff"
; EN: MyBuddiesPage.PageCaption="Buddies"
MyBuddiesPage.PageCaption="Freunde"
MyCTFServerListPage.PageCaption="CTF"
; EN: MyCustomServerListPage.PageCaption="Custom"
MyCustomServerListPage.PageCaption="Benutzerdefiniert"
MyDMServerListPage.PageCaption="DM"
; EN: MyDomServerListPage.PageCaption="Double Dom"
MyDomServerListPage.PageCaption="Doppeldom"
; EN: MyFavoritesPage.PageCaption="Favorites"
MyFavoritesPage.PageCaption="Favoriten"
; EN: MyIRCPage.PageCaption="Chat"
MyIRCPage.PageCaption="Plaudern"
MyLANPage.PageCaption="LAN"
; EN: MyMOTDPage.PageCaption="News"
MyMOTDPage.PageCaption="Nachrichten"
MyPrefsPage.PageCaption="Filter"
; EN: MyTDMServerListPage.PageCaption="Team DM"
MyTDMServerListPage.PageCaption="Team-DM"
; EN: ServerBrowserHeader.Caption="Server Browser"
ServerBrowserHeader.Caption="Serverbrowser"

[Tab_AdminPlayerList]
; EN: AdminPlayerBan.Caption="Ban"
AdminPlayerBan.Caption="Verbot"
; EN: AdminPlayerBan.Hint="Ban this player"
AdminPlayerBan.Hint="Diesen Spieler sperren"
; EN: AdminPlayerKick.Caption="Kick"
AdminPlayerKick.Caption="Trete"
; EN: AdminPlayerKick.Hint="Kick this Player"
AdminPlayerKick.Hint="Kick diesen Spieler"

[Tab_AudioSettings]
; EN: AudioModes[0]="Software 3D Audio"
AudioModes[0]="Software 3D-Audio"
; EN: AudioModes[1]="Hardware 3D Audio"
AudioModes[1]="Hardware-3D-Audio"
; EN: AudioModes[2]="Hardware 3D Audio + EAX"
AudioModes[2]="Hardware 3D-Audio + EAX"
; EN: AudioModes[3]="Safe Mode"
AudioModes[3]="Sicherheitsmodus"
; EN: VoiceModes[0]="All"
VoiceModes[0]="Alle"
; EN: VoiceModes[1]="No auto-taunts"
VoiceModes[1]="Keine automatischen Verspottungen"
; EN: VoiceModes[2]="No taunts"
VoiceModes[2]="Keine Sticheleien"
; EN: VoiceModes[3]="None"
VoiceModes[3]="Keiner"
; EN: AnnounceModes[0]="None"
AnnounceModes[0]="Keiner"
AnnounceModes[1]="Minimal"
; EN: AnnounceModes[2]="All"
AnnounceModes[2]="Alle"
; EN: AudioAnnounce.Caption="Announcements"
AudioAnnounce.Caption="Ankündigungen"
; EN: AudioAnnounce.Hint="Adjusts the amount of in-game announcements."
AudioAnnounce.Hint="Passt die Anzahl der Ankündigungen im Spiel an."
; EN: AudioAnnouncerPack.Caption="Announcer Voice"
AudioAnnouncerPack.Caption="Ansager-Stimme"
; EN: AudioAnnouncerPack.Hint="Select the Announcer for tonight's game."
AudioAnnouncerPack.Hint="Wählen Sie den Ansager für das heutige Spiel aus."
; EN: AudioAutoTaunt.Caption="Auto-Taunt"
AudioAutoTaunt.Caption="Auto-Verspottung"
; EN: AudioAutoTaunt.Hint="Enables your in-game player to automatically taunt opponents."
AudioAutoTaunt.Hint="Ermöglicht Ihrem Spieler im Spiel, Gegner automatisch zu verspotten."
; EN: AudioEffectsVolumeLabel.Caption="Effects Volume"
AudioEffectsVolumeLabel.Caption="Effektlautstärke"
; EN: AudioEffectsVolumeSlider.Hint="Changes the volume of all in game sound effects."
AudioEffectsVolumeSlider.Hint="Ändert die Lautstärke aller Soundeffekte im Spiel."
; EN: AudioLowDetail.Caption="Low Sound Detail"
AudioLowDetail.Caption="Niedrige Tondetails"
; EN: AudioLowDetail.Hint="Lowers quality of sound."
AudioLowDetail.Hint="Verringert die Klangqualität."
; EN: AudioMatureTaunts.Caption="Mature Taunts"
AudioMatureTaunts.Caption="Reife Verspottungen"
; EN: AudioMatureTaunts.Hint="Enables off-color commentary."
AudioMatureTaunts.Hint="Aktiviert Off-Color-Kommentare."
; EN: AudioMessageBeep.Caption="Message Beep"
AudioMessageBeep.Caption="Signalton"
; EN: AudioMessageBeep.Hint="Enables a beep when receiving a text message from other players."
AudioMessageBeep.Hint="Aktiviert einen Piepton, wenn eine Textnachricht von anderen Spielern empfangen wird."
; EN: AudioMode.Caption="Audio Mode"
AudioMode.Caption="Audiomodus"
; EN: AudioMode.Hint="Changes the audio system mode."
AudioMode.Hint="Ändert den Audiosystemmodus."
; EN: AudioMusicVolumeLabel.Caption="Music Volume"
AudioMusicVolumeLabel.Caption="Musiklautstärke"
; EN: AudioMusicVolumeSlider.Hint="Changes the volume of the background music."
AudioMusicVolumeSlider.Hint="Ändert die Lautstärke der Hintergrundmusik."
; EN: AudioPlayVoices.Caption="Play Voices"
AudioPlayVoices.Caption="Stimmen abspielen"
; EN: AudioPlayVoices.Hint="Defines the types of voice messages to play."
AudioPlayVoices.Hint="Definiert die Typen der abzuspielenden Sprachnachrichten."
; EN: AudioReverseStereo.Caption="Reverse Stereo"
AudioReverseStereo.Caption="Stereo umkehren"
; EN: AudioReverseStereo.Hint="Reverses the left and right audio channels."
AudioReverseStereo.Hint="Kehrt den linken und rechten Audiokanal um."
; EN: AudioVoiceVolumeLabel.Caption="Announcer Volume"
AudioVoiceVolumeLabel.Caption="Ansagervolumen"
; EN: AudioVoiceVolumeSlider.Hint="Changes the volume of all in game voice messages."
AudioVoiceVolumeSlider.Hint="Ändert die Lautstärke aller Sprachnachrichten im Spiel."

[Tab_ControlSettings]
; EN: Bindings=((KeyLabel="Movement"),(KeyLabel="Forward"),(KeyLabel="Backward"),(KeyLabel="Strafe Left"),(KeyLabel="Strafe Right"),(KeyLabel="Jump"),(KeyLabel="Walk"),(KeyLabel="Crouch"),(KeyLabel="Strafe Toggle"),(KeyLabel="Looking"),(KeyLabel="Turn Left"),(KeyLabel="Turn Right"),(KeyLabel="Look Up"),(KeyLabel="Look Down"),(KeyLabel="Center View"),(KeyLabel="Weapons"),(KeyLabel="Fire"),(KeyLabel="Alt-Fire"),(KeyLabel="Throw Weapon"),(KeyLabel="Best Weapon"),(KeyLabel="Next Weapon"),(KeyLabel="Prev Weapon"),(KeyLabel="Last Weapon"),(KeyLabel="Weapon Selection"),(KeyLabel="Super Weapon"),(KeyLabel="Shield Gun"),(KeyLabel="Assault Rifle"),(KeyLabel="Bio-Rifle"),(KeyLabel="Shock Rifle"),(KeyLabel="Link Gun"),(KeyLabel="Minigun"),(KeyLabel="Flak Cannon"),(KeyLabel="Rocket Launcher"),(KeyLabel="Lightning Rifle"),(KeyLabel="Translocator"),(KeyLabel="Communication"),(KeyLabel="Say"),(KeyLabel="Team Say"),(KeyLabel="Speech Menu"),(KeyLabel="Taunts"),(KeyLabel="Pelvic Thrust"),(KeyLabel="Ass Smack"),(KeyLabel="Throat Cut"),(KeyLabel="Hud"),(KeyLabel="Grow Hud"),(KeyLabel="Shrink Hud"),(KeyLabel="Miscellaneous"),(KeyLabel="Pause"),(KeyLabel="Screenshot"),(KeyLabel="Menu"),(KeyLabel="ScoreBoard"),(KeyLabel="ScoreBoard Toggle"),(KeyLabel="In Game Chat"),(KeyLabel="Server Info"))
Bindings=((KeyLabel="Bewegung"),(KeyLabel="Nach vorne"),(KeyLabel="Rückwärts"),(KeyLabel="Strafe links"),(KeyLabel="Strafe rechts"),(KeyLabel="Springen"),(KeyLabel="Spaziergang"),(KeyLabel="Hocken"),(KeyLabel="Strafe Toggle"),(KeyLabel="Suchen"),(KeyLabel="Biegen Sie links ab"),(KeyLabel="Biegen Sie rechts ab"),(KeyLabel="Schau hoch"),(KeyLabel="Schau runter"),(KeyLabel="Mittelpunkt"),(KeyLabel="Waffen"),(KeyLabel="Feuer"),(KeyLabel="Alt-Feuer"),(KeyLabel="Wurfwaffe"),(KeyLabel="Beste Waffe"),(KeyLabel="Nächste Waffe"),(KeyLabel="Vorh Waffe"),(KeyLabel="Letzte Waffe"),(KeyLabel="Waffenauswahl"),(KeyLabel="Superwaffe"),(KeyLabel="Schildkanone"),(KeyLabel="Sturmgewehr"),(KeyLabel="Bio-Gewehr"),(KeyLabel="Schockgewehr"),(KeyLabel="Link Gun"),(KeyLabel="Minigun"),(KeyLabel="Flakkanone"),(KeyLabel="Raketenwerfer"),(KeyLabel="Blitzgewehr"),(KeyLabel="Übersetzer"),(KeyLabel="Kommunikation"),(KeyLabel="Sagen"),(KeyLabel="Team Say"),(KeyLabel="Sprachmenü"),(KeyLabel="Spott"),(KeyLabel="Beckenschub"),(KeyLabel="Arschlecken"),(KeyLabel="Halsschnitt"),(KeyLabel="Hud"),(KeyLabel="Grow Hud"),(KeyLabel="Hud verkleinern"),(KeyLabel="Sonstig"),(KeyLabel="Pause"),(KeyLabel="Bildschirmfoto"),(KeyLabel="Speisekarte"),(KeyLabel="Anzeigetafel"),(KeyLabel="Anzeigetafel umschalten"),(KeyLabel="Im Spiel-Chat"),(KeyLabel="Server-Info"))
Labels=("Movement","Forward","Backward","Strafe Left","Strafe Right","Jump","Walk","Crouch","Strafe Toggle","Looking","Turn Left","Turn Right","Look Up","Look Down","Center View","Weapons","Fire","Alt-Fire","Throw Weapon","Best Weapon","Next Weapon","Prev Weapon","Last Weapon","Weapon Selection","Super Weapon","Shield Gun","Assault Rifle","Bio-Rifle","Shock Rifle","Link Gun","Minigun","Flak Cannon","Rocket Launcher","Lightning Rifle","Translocator","Communication","Say","Team Say","Speech Menu","Taunts","Pelvic Thrust","Ass Smack","Throat Cut","Hud","Grow Hud","Shrink Hud","Miscellaneous","Pause","Screenshot","Menu","ScoreBoard","ScoreBoard Toggle","In Game Chat","Server Info")
Header="["
; EN: Footer="] Perform this action "
Footer="] Führen Sie diese Aktion aus "
; EN: KeyConfigAliasLabel.Caption="Action"
KeyConfigAliasLabel.Caption="Handlung"
; EN: KeyConfigAliasLabel2.Caption="Key 1"
KeyConfigAliasLabel2.Caption="Taste 1"
; EN: KeyConfigAliasLabel3.Caption="Key 2"
KeyConfigAliasLabel3.Caption="Taste 2"
; EN: KeyConfigKeyList.Hint="Select Control to config"
KeyConfigKeyList.Hint="Wählen Sie Steuerung zum Konfigurieren"
; EN: KeyResetButton.Caption="RESET"
KeyResetButton.Caption="ZURÜCKSETZEN"
; EN: KeyResetButton.Hint="Reset keys to default values"
KeyResetButton.Hint="Schlüssel auf Standardwerte zurücksetzen"

[Tab_DetailSettings]
; EN: DetailLevels[0]="Lowest"
DetailLevels[0]="Niedrigste"
; EN: DetailLevels[1]="Lower"
DetailLevels[1]="Untere"
; EN: DetailLevels[2]="Low"
DetailLevels[2]="Niedrig"
DetailLevels[3]="Normal"
; EN: DetailLevels[4]="High"
DetailLevels[4]="Hoch"
; EN: DetailLevels[5]="Higher"
DetailLevels[5]="Höher"
; EN: DetailLevels[6]="Highest"
DetailLevels[6]="Höchste"
; EN: DetailActorDetail.Caption="World Detail"
DetailActorDetail.Caption="Weltdetail"
; EN: DetailActorDetail.Hint="Changes the level of detail used for optional geometry and effects."
DetailActorDetail.Hint="Ändert die Detailgenauigkeit, die für optionale Geometrie und Effekte verwendet wird."
; EN: DetailBlob.Caption="Use Blob Shadows"
DetailBlob.Caption="Verwenden Sie Blob-Schatten"