[AdminPlayerList]
ColumnHeadings=("Player Name","Unique ID","IP")

[Browser_AddBuddy]
; EN: AddBuddyDesc.Caption="Add Buddy"
AddBuddyDesc.Caption="Dodaj znajomego"
; EN: BuddyEntryBox.Caption="Buddy Name: "
BuddyEntryBox.Caption="Imię i nazwisko znajomego: "
; EN: CancelButton.Caption="CANCEL"
CancelButton.Caption="ANULUJ"
; EN: OkButton.Caption="OK"
OkButton.Caption="ok"

[Browser_BuddyList]
ColumnHeadings=("Buddy Name")

[Browser_IRC]
SystemLabel="System"
; EN: LeaveChannelCaption="LEAVE CHANNEL"
LeaveChannelCaption="OPUŚĆ KANAŁ"
; EN: LeavePrivateCaptionHead="CLOSE "
LeavePrivateCaptionHead="BLISKO "
; EN: ChooseNewNickText="Choose A New Chat Nickname"
ChooseNewNickText="Wybierz nowy pseudonim czatu"
; EN: MyBackButton.Caption="BACK"
MyBackButton.Caption="PLECY"
; EN: MyChangeNickButton.Caption="CHANGE NICK"
MyChangeNickButton.Caption="ZMIEŃ NICI"

[Browser_IconKey]
; EN: DialogText.Caption="Server Icon Key"
DialogText.Caption="Klawisz ikony serwera"
; EN: OkButton.Caption="OK"
OkButton.Caption="ok"

[Browser_MOTD]
; EN: VersionString="Ver."
VersionString="Wer."
; EN: MyBackButton.Caption="BACK"
MyBackButton.Caption="PLECY"
; EN: MyRefreshButton.Caption="REFRESH"
MyRefreshButton.Caption="ODŚWIEŻAĆ"
; EN: MyUpgradeButton.Caption="UPGRADE"
MyUpgradeButton.Caption="AKTUALIZACJA"

[Browser_OpenIP]
; EN: CancelButton.Caption="CANCEL"
CancelButton.Caption="ANULUJ"
; EN: IpEntryBox.Caption="IP Address: "
IpEntryBox.Caption="Adres IP: "
; EN: OkButton.Caption="OK"
OkButton.Caption="ok"
; EN: OpenIPDesc.Caption="Enter New IP Address"
OpenIPDesc.Caption="Wprowadź nowy adres IP"

[Browser_Page]
; EN: StartQueryString="Querying Master Server"
StartQueryString="Odpytywanie serwera głównego"
; EN: AuthFailString="Authentication Failed"
AuthFailString="Uwierzytelnianie nie powiodło się"
; EN: ConnFailString="Connection Failed - Retrying"
ConnFailString="Nieudane połączenie — ponawianie próby"
; EN: ConnTimeoutString="Connection Timed Out"
ConnTimeoutString="Przekroczono limit czasu połączenia"
; EN: QueryCompleteString="Query Complete!"
QueryCompleteString="Zapytanie zakończone!"
; EN: RefreshCompleteString="Refresh Complete!"
RefreshCompleteString="Odświeżanie zakończone!"
; EN: ReadyString="Ready"
ReadyString="Gotowy"

[Browser_PlayersList]
ColumnHeadings=("Player Name","Score","Stats ID","Ping")

[Browser_Prefs]
; EN: ViewStatsStrings[0]="Any Servers"
ViewStatsStrings[0]="Dowolne serwery"
; EN: ViewStatsStrings[1]="Only Stats Servers"
ViewStatsStrings[1]="Tylko serwery statystyk"
; EN: ViewStatsStrings[2]="No Stats Servers"
ViewStatsStrings[2]="Brak serwerów statystyk"
; EN: MutatorModeStrings[0]="Any Mutators"
MutatorModeStrings[0]="Wszelkie mutatory"
; EN: MutatorModeStrings[1]="No Mutators"
MutatorModeStrings[1]="Brak mutatorów"
; EN: MutatorModeStrings[2]="This Mutator"
MutatorModeStrings[2]="Ten Mutator"
; EN: MutatorModeStrings[3]="Not This Mutator"
MutatorModeStrings[3]="Nie ten mutator"
; EN: WeaponStayStrings[0]="Any Servers"
WeaponStayStrings[0]="Dowolne serwery"
; EN: WeaponStayStrings[1]="Only Weapon Stay Servers"
WeaponStayStrings[1]="Tylko serwery broni"
; EN: WeaponStayStrings[2]="No Weapon Stay Servers"
WeaponStayStrings[2]="Brak serwerów do obsługi broni"
; EN: TranslocatorStrings[0]="Any Servers"
TranslocatorStrings[0]="Dowolne serwery"
; EN: TranslocatorStrings[1]="Only Translocator Servers"
TranslocatorStrings[1]="Tylko serwery Translocator"
; EN: TranslocatorStrings[2]="No Translocator Servers"
TranslocatorStrings[2]="Brak serwerów Translocator"
; EN: CustomQuery.Caption="Custom Query"
CustomQuery.Caption="Zapytanie niestandardowe"
; EN: FilterTitle.Caption="Server Filtering Options:"
FilterTitle.Caption="Opcje filtrowania serwerów:"
; EN: MaxGamespeed.Caption="Max"
MaxGamespeed.Caption="Maks."
; EN: MinGamespeed.Caption="Game Speed Min"
MinGamespeed.Caption="Minimalna prędkość gry"
; EN: MutatorModeCombo.Caption="Mutators"
MutatorModeCombo.Caption="Mutatory"
; EN: MyBackButton.Caption="BACK"
MyBackButton.Caption="PLECY"
; EN: MyKeyButton.Caption="ICON KEY"
MyKeyButton.Caption="KLAWISZ IKONA"
; EN: NoBotServersCheckBox.Caption="No Servers With Bots"
NoBotServersCheckBox.Caption="Brak serwerów z botami"
; EN: NoEmptyCheckBox.Caption="No Empty Servers"
NoEmptyCheckBox.Caption="Brak pustych serwerów"
; EN: NoFullCheckBox.Caption="No Full Servers"
NoFullCheckBox.Caption="Brak pełnych serwerów"
; EN: NoPasswdCheckBox.Caption="No Passworded Servers"
NoPasswdCheckBox.Caption="Brak serwerów z hasłami"
; EN: OnlyStandardCheckBox.Caption="Only Standard Servers"
OnlyStandardCheckBox.Caption="Tylko serwery standardowe"
; EN: StatsViewCombo.Caption="Stats Servers"
StatsViewCombo.Caption="Serwery statystyk"
; EN: TranslocatorCombo.Caption="Translocator"
TranslocatorCombo.Caption="Translokator"
; EN: WeaponStayCombo.Caption="WeaponStay"
WeaponStayCombo.Caption="BrońStay"

[Browser_RulesList]
; EN: TrueString="Enabled"
TrueString="Włączony"
; EN: FalseString="Disabled"
FalseString="Wyłączone"
; EN: ServerModeString="Server Mode"
ServerModeString="Tryb serwera"
; EN: DedicatedString="Dedicated"
DedicatedString="Dedykowane"
; EN: NonDedicatedString="Non-Dedicated"
NonDedicatedString="Niededykowany"
; EN: AdminNameString="Server Admin"
AdminNameString="Administrator serwera"
; EN: AdminEmailString="Admin Email"
AdminEmailString="Adres e-mail administratora"
; EN: PasswordString="Requires Password"
PasswordString="Wymaga hasła"
; EN: GameStatsString="UT2004 Stats"
GameStatsString="Statystyki UT2004"
; EN: GameSpeedString="Game Speed"
GameSpeedString="Prędkość gry"
MutatorString="Mutator"
; EN: BalanceTeamsString="Bots Balance Teams"
BalanceTeamsString="Zespoły równoważące boty"
; EN: PlayersBalanceTeamsString="Balance Teams"
PlayersBalanceTeamsString="Równoważenie drużyn"
; EN: FriendlyFireString="Friendly Fire"
FriendlyFireString="Przyjazny ogień"
; EN: GoalScoreString="Goal Score"
GoalScoreString="Wynik goli"
; EN: TimeLimitString="Time Limit"
TimeLimitString="Limit czasu"
; EN: MinPlayersString="Minimum Players (bots)"
MinPlayersString="Minimalni gracze (boty)"
; EN: TranslocatorString="Translocator"
TranslocatorString="Translokator"
; EN: WeaponStayString="Weapons Stay"
WeaponStayString="Broń pobyt"
ColumnHeadings=("Setting","Value")

[Browser_ServerListPageBase]
; EN: AddFavoriteButton.Caption="ADD FAVORITE"
AddFavoriteButton.Caption="DODAJ ULUBIONE"
; EN: BackButton.Caption="BACK"
BackButton.Caption="PLECY"
; EN: JoinButton.Caption="JOIN"
JoinButton.Caption="PRZYSTĄP"
; EN: RefreshButton.Caption="REFRESH LIST"
RefreshButton.Caption="ODŚWIEŻ LISTĘ"
; EN: SpectateButton.Caption="SPECTATE"
SpectateButton.Caption="WIDZENIE"

[Browser_ServerListPageBuddy]
; EN: AddBuddyCaption="ADD BUDDY"
AddBuddyCaption="DODAJ ZNAJOMEGO"
; EN: RemoveBuddyCaption="REMOVE BUDDY"
RemoveBuddyCaption="USUŃ KUMPLA"

[Browser_ServerListPageFavorites]
; EN: RemoveFavoriteCaption="REMOVE FAVORITE"
RemoveFavoriteCaption="USUŃ ULUBIONE"
; EN: AddIPCaption="ADD IP"
AddIPCaption="DODAJ IP"
; EN: RePingCaption="RE-PING LIST"
RePingCaption="RE-PING LISTA"

[Browser_ServerListPageMS]
; EN: QueryFinHead="Query Complete! Received: "
QueryFinHead="Zapytanie zakończone! Otrzymane: "
; EN: QueryFinTail=" Servers"
QueryFinTail=" Serwery"
; EN: PingRecvString="Pinging Servers"
PingRecvString="Serwery pingujące"
; EN: MustUpgradeString="Upgrade available. Please refresh the News page."
MustUpgradeString="Dostępna aktualizacja. Odśwież stronę Wiadomości."
; EN: RefreshFinHead="Pinging Complete! "
RefreshFinHead="Pingowanie zakończone! "
; EN: RefreshFinMid=" Servers, "
RefreshFinMid=" Serwery, "
; EN: RefreshFinTail=" Players"
RefreshFinTail=" Gracze"
; EN: RePingServersCaption="RE-PING LIST"
RePingServersCaption="RE-PING LISTA"
; EN: RefreshCaption="REFRESH LIST"
RefreshCaption="ODŚWIEŻ LISTĘ"

[Browser_ServerListPageMSCustom]
; EN: MyGameTypeLabel.Caption="Game Type"
MyGameTypeLabel.Caption="Rodzaj gry"

[Browser_ServersList]
IconDescriptions=("Passworded","Stats Enabled","Latest Version","Listen Server","Instagib","Standard Server","UT Classic")
ColumnHeadings=(,"Server Name","Map","Players","Ping")

[DefaultCrosshairs]
; EN: Crosshair=((FriendlyName="Cross (1)"),(FriendlyName="Cross (2)"),(FriendlyName="Cross (3)"),(FriendlyName="Cross (4)"),(FriendlyName="Cross (5)"),(FriendlyName="Dot"),(FriendlyName="Pointer"),(FriendlyName="Triad (1)"),(FriendlyName="Triad (2)"),(FriendlyName="Triad (3)"),(FriendlyName="Bracket (1)"),(FriendlyName="Bracket (2)"),(FriendlyName="Circle (1)"),(FriendlyName="Circle (2)"))
Crosshair=((FriendlyName="Krzyż (1)"),(FriendlyName="Krzyż (2)"),(FriendlyName="Krzyż (3)"),(FriendlyName="Krzyż (4)"),(FriendlyName="Krzyż (5)"),(FriendlyName="Kropka"),(FriendlyName="Wskaźnik"),(FriendlyName="Triada (1)"),(FriendlyName="Triada (2)"),(FriendlyName="Triada (3)"),(FriendlyName="Wspornik (1)"),(FriendlyName="Wspornik (2)"),(FriendlyName="Koło (1)"),(FriendlyName="Koło (2)"))

[ExtendedConsole]
; EN: AddedCurrentHead="Added Server:"
AddedCurrentHead="Dodany serwer:"
; EN: AddedCurrentTail="To Favorites!"
AddedCurrentTail="Do ulubionych!"
; EN: ServerFullMsg="Server is now full"
ServerFullMsg="Serwer jest teraz pełny"
; EN: SMStateName[0]="Speech Menu"
SMStateName[0]="Menu mowy"
; EN: SMStateName[1]="Voice Chat"
SMStateName[1]="Chat głosowy"
; EN: SMStateName[2]="Acknowledge"
SMStateName[2]="Uznawać"
; EN: SMStateName[3]="Friendly Fire"
SMStateName[3]="Przyjazny ogień"
; EN: SMStateName[4]="Order"
SMStateName[4]="Zamówienie"
; EN: SMStateName[5]="Other"
SMStateName[5]="Inne"
; EN: SMStateName[6]="Taunt"
SMStateName[6]="Kpina"
; EN: SMStateName[7]="Taunt Anim"
SMStateName[7]="drwina animacja"
; EN: SMStateName[8]="Player Select"
SMStateName[8]="Wybór gracza"
; EN: SMChannelOptions[0]="Join"
SMChannelOptions[0]="Dołączyć"
; EN: SMChannelOptions[1]="Leave"
SMChannelOptions[1]="Opuszczać"
; EN: SMChannelOptions[2]="Talk"
SMChannelOptions[2]="Rozmowa"
; EN: SMAllString="[ALL]"
SMAllString="[WSZYSTKO]"
; EN: SMMoreString="[MORE]"
SMMoreString="[JESZCZE]"

[GUIController]
; EN: DesignModeHints=((Key=" Key",Description="                                Description"),(Key=" (F1)",Description="                                View this help screen"),(Key=" Ctrl + Alt + D",Description="                      Toggles design mode"),(Key=" Ctrl + Alt + E",Description="                      Toggles property editor mode"),(Key=" [Ctrl +] H",Description="                          Toggles active/focused info"),(Key=" [Ctrl +] I",Description="                          Toggle interactive mode"),(Key=" [Ctrl +] P",Description="                          Toggles full MenuOwner chains for active/focused"),(Key=" [Ctrl +] C",Description="                          Copy MoveControl position to clipboard"),(Key=" [Ctrl +] X",Description="                          Export MoveControl to clipboard"),(Key=" [Ctrl +] U",Description="                          Refresh the property window in the designer"),(Key=" [Ctrl +] Up/Down/Left/Right",Description="         Reposition MoveControl using arrow keys"),(Key=" [Ctrl +] +/-",Description="                        Resize MoveControl vertically"),(Key=" [Ctrl +] Num+/Num-",Description="                  Resize selected component horizontally"),(Key=" [Ctrl +] WheelUp",Description="                    Set MoveControl to MoveControl's menuowner"),(Key=" [Ctrl +] WheenDown",Description="                  Set MoveControl to MoveControl's focused control"),(Key=" [(Ctrl + Alt) +] MouseX/Y+LMouse",Description="    Reposition MoveControl using mouse"),(Key=" (Shift)",Description="                             Hides all design mode indicators"),(Key=" (Ctrl + Alt)",Description="                        View focus chain"),(Key=" [Ctrl +] Tab",Description="                        Select new MoveControl"),(Key=" [Ctrl +] LMouse",Description="                     Select new MoveControl"))
DesignModeHints=((Key=" Klucz",Description="                                Opis"),(Key=" (F1)",Description="                                Wyświetl ten ekran pomocy"),(Key=" Ctrl + Alt + D",Description="                      Przełącza tryb projektowania"),(Key=" Ctrl + Alt + E",Description="                      Przełącza tryb edytora właściwości"),(Key=" [Ctrl +] H",Description="                          Przełącza aktywne/ukierunkowane informacje"),(Key=" [Ctrl +] I",Description="                          Przełącz tryb interaktywny"),(Key=" [Ctrl +] P",Description="                          Przełącza pełne łańcuchy MenuOwner dla aktywnych/skoncentrowanych"),(Key=" [Ctrl +] C",Description="                          Skopiuj pozycję MoveControl do schowka"),(Key=" [Ctrl +] X",Description="                          Eksportuj MoveControl do schowka"),(Key=" [Ctrl +] U",Description="                          Odśwież okno właściwości w projektancie"),(Key=" [Ctrl +] Góra/Dół/Lewo/Prawo",Description="         Zmień położenie MoveControl za pomocą klawiszy strzałek"),(Key=" [Ctrl +] +/-",Description="                        Zmień rozmiar MoveControl w pionie"),(Key=" [Ctrl +] Num+/Numer-",Description="                  Zmień rozmiar wybranego komponentu w poziomie"),(Key=" [Ctrl +] WheelUp",Description="                    Ustaw MoveControl na właściciela menu MoveControl"),(Key=" [Ctrl +] Kiedy w dół",Description="                  Ustaw MoveControl na skoncentrowaną kontrolę MoveControl"),(Key=" [(Ctrl + Alt) +] MyszX/Y+LMysz",Description="    Zmień położenie MoveControl za pomocą myszy"),(Key=" (Zmiana)",Description="                             Ukrywa wszystkie wskaźniki trybu projektowania"),(Key=" (Ctrl + Alt)",Description="                        Wyświetl łańcuch ostrości"),(Key=" [Ctrl +] Tab",Description="                        Wybierz nowy MoveControl"),(Key=" [Ctrl +] LMysz",Description="                     Wybierz nowy MoveControl"))

[GUIQuestionPage]
ButtonNames=("Ok","Cancel","Retry","Continue","Yes","No","Abort","Ignore")

[HudBTeamDeathMatch]
; EN: LinkEstablishedMessage="LINK ESTABLISHED"
LinkEstablishedMessage="UTWÓRZ ŁĄCZE"

[HudBase]
; EN: InstructionFontName="UT2003Fonts.jFontMono800x600"
InstructionFontName="UT2003Czcionki.jFontMono800x600"
; EN: LevelActionLoading="LOADING..."
LevelActionLoading="ŁADOWANIE..."
; EN: LevelActionPaused="PAUSED"
LevelActionPaused="WSTRZYMANO"
; EN: LevelActionFontName="UT2003Fonts.FontMedium"
LevelActionFontName="UT2003Czcionki.CzcionkaŚrednia"
; EN: WonMatchPostFix=" won the match!"
WonMatchPostFix=" wygrał mecz!"
; EN: WaitingToSpawn="Press [Fire] to join the match!"
WaitingToSpawn="Naciśnij [Fire], aby dołączyć do meczu!"
; EN: AtMenus="Press [ESC] to close menu"
AtMenus="Wciśnij [ESC], aby zamknąć menu"
; EN: YouveWonTheMatch="You've won the match!"
YouveWonTheMatch="Wygrałeś mecz!"
; EN: YouveLostTheMatch="You've lost the match."
YouveLostTheMatch="Przegrałeś mecz."
; EN: NowViewing="Now viewing"
NowViewing="Teraz oglądam"
; EN: ScoreText="Score"
ScoreText="Wynik"
; EN: InitialViewingString="Press Fire to View a different Player"
InitialViewingString="Naciśnij przycisk ognia, aby wyświetlić innego gracza"
; EN: ProgressFontName="UT2003Fonts.FontMedium"
ProgressFontName="UT2003Czcionki.CzcionkaŚrednia"
; EN: FontArrayNames[0]="UT2003Fonts.FontEurostile37"
FontArrayNames[0]="UT2003Czcionki.CzcionkaEurostile37"
; EN: FontArrayNames[1]="UT2003Fonts.FontEurostile29"
FontArrayNames[1]="UT2003Czcionki.CzcionkaEurostile29"
; EN: FontArrayNames[2]="UT2003Fonts.FontEurostile24"
FontArrayNames[2]="UT2003Czcionki.CzcionkaEurostile24"
; EN: FontArrayNames[3]="UT2003Fonts.FontEurostile21"
FontArrayNames[3]="UT2003Czcionki.CzcionkaEurostile21"
; EN: FontArrayNames[4]="UT2003Fonts.FontEurostile17"
FontArrayNames[4]="UT2003Czcionki.CzcionkaEurostile17"
; EN: FontArrayNames[5]="UT2003Fonts.FontEurostile14"
FontArrayNames[5]="UT2003Czcionki.CzcionkaEurostile14"
; EN: FontArrayNames[6]="UT2003Fonts.FontEurostile12"
FontArrayNames[6]="UT2003Czcionki.CzcionkaEurostile12"
; EN: FontArrayNames[7]="UT2003Fonts.FontEurostile9"
FontArrayNames[7]="UT2003Czcionki.CzcionkaEurostile9"
; EN: FontArrayNames[8]="UT2003Fonts.FontSmallText"
FontArrayNames[8]="UT2003 Czcionki. Czcionka Mały tekst"

[HudCTeamDeathMatch]
; EN: LinkEstablishedMessage="LINK ESTABLISHED"
LinkEstablishedMessage="UTWÓRZ ŁĄCZE"

[IRCLink]
; EN: InvalidAddressText="Invalid server address, aborting."
InvalidAddressText="Nieprawidłowy adres serwera, przerywam."
; EN: ErrorBindingText="Error binding local port, aborting."
ErrorBindingText="Błąd wiązania portu lokalnego, przerywanie."
; EN: ResolveFailedText="Failed to resolve server address, aborting."
ResolveFailedText="Nie udało się rozpoznać adresu serwera, przerywam."
; EN: ConnectedText="Connected."
ConnectedText="Połączony."
; EN: ConnectingToText="Connecting to"
ConnectingToText="Łączenie z"
; EN: TimeOutError="Timeout connecting to server."
TimeOutError="Limit czasu połączenia z serwerem."
; EN: InviteString="invites you to join"
InviteString="zaprasza Cię do przyłączenia się"
; EN: NickInUseText="Nickname Already In Use"
NickInUseText="Pseudonim już używany"
; EN: NickInvalidText="Nickname Is Invalid"
NickInvalidText="Pseudonim jest nieprawidłowy"

[IRC_NewNick]
; EN: NewNickEntry.Caption="New Nickname: "
NewNickEntry.Caption="Nowy pseudonim: "
; EN: OkButton.Caption="OK"
OkButton.Caption="ok"

[IRC_Page]
; EN: HasLeftText="has left"
HasLeftText="odszedł"
; EN: HasJoinedText="has joined"
HasJoinedText="Dołączył"
; EN: WasKickedByText="was kicked by"
WasKickedByText="został wyrzucony przez"
; EN: NowKnownAsText="is now known as"
NowKnownAsText="jest teraz znany jako"
; EN: QuitText="Quit"
QuitText="Zrezygnować"
; EN: SetsModeText="sets mode"
SetsModeText="ustawia tryb"
; EN: NewTopicText="Topic"
NewTopicText="Temat"

[IRC_System]
; EN: NotInAChannelText="Not in a channel!"
NotInAChannelText="Nie w kanale!"
; EN: KickedFromText="You were kicked from"
KickedFromText="Zostałeś wyrzucony z"
; EN: ByText="by"
ByText="za pomocą"
; EN: IsAwayText="is away"
IsAwayText="wyjechał"
; EN: ConnectText="CONNECT"
ConnectText="ŁĄCZYĆ"
; EN: DisconnectText="DISCONNECT"
DisconnectText="ROZŁĄCZYĆ SIĘ"
; EN: MyChannelLabel.Caption="Channel"
MyChannelLabel.Caption="Kanał"
; EN: MyJoinChannelButton.Caption="JOIN CHANNEL"
MyJoinChannelButton.Caption="DOŁĄCZ DO KANAŁU"
; EN: MyRemoveChannelButton.Caption="REMOVE CHANNEL"
MyRemoveChannelButton.Caption="USUŃ KANAŁ"
; EN: MyRemoveServerButton.Caption="REMOVE SERVER"
MyRemoveServerButton.Caption="USUŃ SERWER"
; EN: MyServerLabel.Caption="Server"
MyServerLabel.Caption="serwer"

[JoeTest]
; EN: TestButton1.Caption="Close Window"
TestButton1.Caption="Zamknij okno"
; EN: TitleText.Caption="Joe's Amazing Test GUI"
TitleText.Caption="Niesamowity interfejs testowy Joe"

[JoeTestPanelA]
; EN: TestButtonA.Caption="Wow"
TestButtonA.Caption="łał"
; EN: TestButtonB.Caption="Damn"
TestButtonB.Caption="Cholera"

[ScoreBoardDeathMatch]
; EN: RankText="RANK"
RankText="RANGA"
; EN: PlayerText="PLAYER"
PlayerText="GRACZ"
; EN: PointsText="SCORE"
PointsText="WYNIK"
; EN: TimeText="TIME:"
TimeText="CZAS:"
; EN: PingText="PING:"
PingText="ŚWIST:"
; EN: PLText="P/L:"
PLText="ZS:"
; EN: DeathsText="DEATHS"
DeathsText="ZGONY"
; EN: AdminText="ADMIN"
AdminText="ADMINISTRATOR"
; EN: NetText="NET"
NetText="INTERNET"
; EN: FooterText="Elapsed Time:"
FooterText="Czas, który upłynął:"
; EN: MatchIDText="UT2004 Stats Match ID"
MatchIDText="Identyfikator meczu statystyk UT2004"
; EN: OutText="OUT"
OutText="NA ZEWNĄTRZ"
; EN: OutFireText="   You are OUT. Fire to view other players."
OutFireText="   Jesteś OUT. Ogień, aby zobaczyć innych graczy."
; EN: ReadyText="READY"
ReadyText="GOTOWY"
; EN: NotReadyText="NOT RDY"
NotReadyText="NIE RDY"
; EN: SkillLevel[0]="NOVICE"
SkillLevel[0]="NOWICJUSZ"
; EN: SkillLevel[1]="AVERAGE"
SkillLevel[1]="PRZECIĘTNY"
; EN: SkillLevel[2]="EXPERIENCED"
SkillLevel[2]="DOŚWIADCZONY"
; EN: SkillLevel[3]="SKILLED"
SkillLevel[3]="WYKWALIFIKOWANY"
SkillLevel[4]="ADEPT"
; EN: SkillLevel[5]="MASTERFUL"
SkillLevel[5]="MISTRZOWSKI"
; EN: SkillLevel[6]="INHUMAN"
SkillLevel[6]="NIELUDZKI"
; EN: SkillLevel[7]="GODLIKE"
SkillLevel[7]="BOSKI"
; EN: MaxLives="MAX LIVES:"
MaxLives="MAKSYMALNE ŻYCIE:"
; EN: FragLimit="FRAG LIMIT:"
FragLimit="LIMIT FRAGÓW:"
FPH="PPH"
; EN: GameType="GAME"
GameType="GRA"
; EN: MapName=" in "
MapName=" w "
; EN: Restart="   You were killed. Press Fire to respawn!"
Restart="   Zostałeś zabity. Naciśnij ogień, aby się odrodzić!"
; EN: Continue=" Press [Fire] to continue!"
Continue=" Naciśnij [Fire], aby kontynuować!"
; EN: Ended="The match has ended."
Ended="Mecz się zakończył."
; EN: TimeLimit="REMAINING TIME:"
TimeLimit="POZOSTAŁY CZAS:"
Spacer=" "

[ScoreBoardTeamDeathMatch]
; EN: FragLimit="SCORE LIMIT:"
FragLimit="LIMIT PUNKTÓW:"

[ServerBrowser]
MutantTypeName="Mutant"
; EN: InvasionTypeName="Invasion"
InvasionTypeName="Inwazja"
; EN: LMSTypeName="Last Man Standing"
LMSTypeName="Ostatni stojący mężczyzna"
MutantType="xMutantGame"
; EN: InvasionType="Invasion"
InvasionType="Inwazja"
; EN: LMSType="xLastManStanding"
LMSType="xOstatni CzłowiekStojący"
; EN: MyBRServerListPage.PageCaption="Bombing Run"
MyBRServerListPage.PageCaption="Bombardowanie"
; EN: MyBuddiesPage.PageCaption="Buddies"
MyBuddiesPage.PageCaption="Kumple"
MyCTFServerListPage.PageCaption="CTF"
; EN: MyCustomServerListPage.PageCaption="Custom"
MyCustomServerListPage.PageCaption="Zwyczaj"
MyDMServerListPage.PageCaption="DM"
; EN: MyDomServerListPage.PageCaption="Double Dom"
MyDomServerListPage.PageCaption="Pokój Dwuosobowy Dom"
; EN: MyFavoritesPage.PageCaption="Favorites"
MyFavoritesPage.PageCaption="Ulubione"
; EN: MyIRCPage.PageCaption="Chat"
MyIRCPage.PageCaption="Czat"
MyLANPage.PageCaption="LAN"
; EN: MyMOTDPage.PageCaption="News"
MyMOTDPage.PageCaption="Aktualności"
; EN: MyPrefsPage.PageCaption="Filter"
MyPrefsPage.PageCaption="Filtr"
; EN: MyTDMServerListPage.PageCaption="Team DM"
MyTDMServerListPage.PageCaption="Zespół DM"
; EN: ServerBrowserHeader.Caption="Server Browser"
ServerBrowserHeader.Caption="Przeglądarka serwerów"

[Tab_AdminPlayerList]
; EN: AdminPlayerBan.Caption="Ban"
AdminPlayerBan.Caption="Zakaz"
; EN: AdminPlayerBan.Hint="Ban this player"
AdminPlayerBan.Hint="Zablokuj tego gracza"
; EN: AdminPlayerKick.Caption="Kick"
AdminPlayerKick.Caption="kopnięcie"
; EN: AdminPlayerKick.Hint="Kick this Player"
AdminPlayerKick.Hint="Wykop tego gracza"

[Tab_AudioSettings]
; EN: AudioModes[0]="Software 3D Audio"
AudioModes[0]="Oprogramowanie dźwięku 3D"
; EN: AudioModes[1]="Hardware 3D Audio"
AudioModes[1]="Sprzętowy dźwięk 3D"
; EN: AudioModes[2]="Hardware 3D Audio + EAX"
AudioModes[2]="Sprzętowe audio 3D + EAX"
; EN: AudioModes[3]="Safe Mode"
AudioModes[3]="Tryb bezpieczeństwa"
; EN: VoiceModes[0]="All"
VoiceModes[0]="Wszystko"
; EN: VoiceModes[1]="No auto-taunts"
VoiceModes[1]="Brak automatycznych drwin"
; EN: VoiceModes[2]="No taunts"
VoiceModes[2]="Bez drwin"
; EN: VoiceModes[3]="None"
VoiceModes[3]="Nic"
; EN: AnnounceModes[0]="None"
AnnounceModes[0]="Nic"
; EN: AnnounceModes[1]="Minimal"
AnnounceModes[1]="Minimalny"
; EN: AnnounceModes[2]="All"
AnnounceModes[2]="Wszystko"
; EN: AudioAnnounce.Caption="Announcements"
AudioAnnounce.Caption="Ogłoszenia"
; EN: AudioAnnounce.Hint="Adjusts the amount of in-game announcements."
AudioAnnounce.Hint="Dostosowuje ilość ogłoszeń w grze."
; EN: AudioAnnouncerPack.Caption="Announcer Voice"
AudioAnnouncerPack.Caption="Głos komentatora"
; EN: AudioAnnouncerPack.Hint="Select the Announcer for tonight's game."
AudioAnnouncerPack.Hint="Wybierz komentatora dzisiejszego meczu."
; EN: AudioAutoTaunt.Caption="Auto-Taunt"
AudioAutoTaunt.Caption="Auto-drwina"
; EN: AudioAutoTaunt.Hint="Enables your in-game player to automatically taunt opponents."
AudioAutoTaunt.Hint="Umożliwia graczowi w grze automatyczne drwiny z przeciwników."
; EN: AudioEffectsVolumeLabel.Caption="Effects Volume"
AudioEffectsVolumeLabel.Caption="Głośność efektów"
; EN: AudioEffectsVolumeSlider.Hint="Changes the volume of all in game sound effects."
AudioEffectsVolumeSlider.Hint="Zmienia głośność wszystkich efektów dźwiękowych w grze."
; EN: AudioLowDetail.Caption="Low Sound Detail"
AudioLowDetail.Caption="Niski poziom dźwięku"
; EN: AudioLowDetail.Hint="Lowers quality of sound."
AudioLowDetail.Hint="Obniża jakość dźwięku."
; EN: AudioMatureTaunts.Caption="Mature Taunts"
AudioMatureTaunts.Caption="Dojrzałe drwiny"
; EN: AudioMatureTaunts.Hint="Enables off-color commentary."
AudioMatureTaunts.Hint="Włącza komentarz w innym kolorze."
; EN: AudioMessageBeep.Caption="Message Beep"
AudioMessageBeep.Caption="Sygnał wiadomości"
; EN: AudioMessageBeep.Hint="Enables a beep when receiving a text message from other players."
AudioMessageBeep.Hint="Włącza sygnał dźwiękowy po otrzymaniu wiadomości tekstowej od innych graczy."
; EN: AudioMode.Caption="Audio Mode"
AudioMode.Caption="Tryb audio"
; EN: AudioMode.Hint="Changes the audio system mode."
AudioMode.Hint="Zmienia tryb systemu audio."
; EN: AudioMusicVolumeLabel.Caption="Music Volume"
AudioMusicVolumeLabel.Caption="Głośność muzyki"
; EN: AudioMusicVolumeSlider.Hint="Changes the volume of the background music."
AudioMusicVolumeSlider.Hint="Zmienia głośność muzyki w tle."
; EN: AudioPlayVoices.Caption="Play Voices"
AudioPlayVoices.Caption="Odtwórz głosy"
; EN: AudioPlayVoices.Hint="Defines the types of voice messages to play."
AudioPlayVoices.Hint="Definiuje typy wiadomości głosowych do odtworzenia."
; EN: AudioReverseStereo.Caption="Reverse Stereo"
AudioReverseStereo.Caption="Odwrócone stereo"
; EN: AudioReverseStereo.Hint="Reverses the left and right audio channels."
AudioReverseStereo.Hint="Odwraca lewy i prawy kanał audio."
; EN: AudioVoiceVolumeLabel.Caption="Announcer Volume"
AudioVoiceVolumeLabel.Caption="Głośność komentatora"
; EN: AudioVoiceVolumeSlider.Hint="Changes the volume of all in game voice messages."
AudioVoiceVolumeSlider.Hint="Zmienia głośność wszystkich wiadomości głosowych w grze."

[Tab_ControlSettings]
; EN: Bindings=((KeyLabel="Movement"),(KeyLabel="Forward"),(KeyLabel="Backward"),(KeyLabel="Strafe Left"),(KeyLabel="Strafe Right"),(KeyLabel="Jump"),(KeyLabel="Walk"),(KeyLabel="Crouch"),(KeyLabel="Strafe Toggle"),(KeyLabel="Looking"),(KeyLabel="Turn Left"),(KeyLabel="Turn Right"),(KeyLabel="Look Up"),(KeyLabel="Look Down"),(KeyLabel="Center View"),(KeyLabel="Weapons"),(KeyLabel="Fire"),(KeyLabel="Alt-Fire"),(KeyLabel="Throw Weapon"),(KeyLabel="Best Weapon"),(KeyLabel="Next Weapon"),(KeyLabel="Prev Weapon"),(KeyLabel="Last Weapon"),(KeyLabel="Weapon Selection"),(KeyLabel="Super Weapon"),(KeyLabel="Shield Gun"),(KeyLabel="Assault Rifle"),(KeyLabel="Bio-Rifle"),(KeyLabel="Shock Rifle"),(KeyLabel="Link Gun"),(KeyLabel="Minigun"),(KeyLabel="Flak Cannon"),(KeyLabel="Rocket Launcher"),(KeyLabel="Lightning Rifle"),(KeyLabel="Translocator"),(KeyLabel="Communication"),(KeyLabel="Say"),(KeyLabel="Team Say"),(KeyLabel="Speech Menu"),(KeyLabel="Taunts"),(KeyLabel="Pelvic Thrust"),(KeyLabel="Ass Smack"),(KeyLabel="Throat Cut"),(KeyLabel="Hud"),(KeyLabel="Grow Hud"),(KeyLabel="Shrink Hud"),(KeyLabel="Miscellaneous"),(KeyLabel="Pause"),(KeyLabel="Screenshot"),(KeyLabel="Menu"),(KeyLabel="ScoreBoard"),(KeyLabel="ScoreBoard Toggle"),(KeyLabel="In Game Chat"),(KeyLabel="Server Info"))
Bindings=((KeyLabel="Ruch"),(KeyLabel="Do przodu"),(KeyLabel="Do tyłu"),(KeyLabel="Strzał w lewo"),(KeyLabel="Strzał w prawo"),(KeyLabel="Skok"),(KeyLabel="Spacerować"),(KeyLabel="Kucanie"),(KeyLabel="Przełącznik strzału"),(KeyLabel="Szukam"),(KeyLabel="Skręć w lewo"),(KeyLabel="Skręć w prawo"),(KeyLabel="Spojrzeć w górę"),(KeyLabel="Spójrz w dół"),(KeyLabel="Widok centralny"),(KeyLabel="Bronie"),(KeyLabel="Ogień"),(KeyLabel="Alt-Fire"),(KeyLabel="Rzuć broń"),(KeyLabel="Najlepsza broń"),(KeyLabel="Następna broń"),(KeyLabel="Poprzednia Broń"),(KeyLabel="Ostatnia broń"),(KeyLabel="Wybór broni"),(KeyLabel="Super broń"),(KeyLabel="Tarcza Pistolet"),(KeyLabel="Karabin"),(KeyLabel="Bio-Karabin"),(KeyLabel="Karabin porażający"),(KeyLabel="Link Gun"),(KeyLabel="Minigun"),(KeyLabel="Działo Flak"),(KeyLabel="Wyrzutnia rakiet"),(KeyLabel="Karabin Błyskawicowy"),(KeyLabel="Translokator"),(KeyLabel="Komunikacja"),(KeyLabel="Mowić"),(KeyLabel="Zespół Say"),(KeyLabel="Menu mowy"),(KeyLabel="Drwiny"),(KeyLabel="Nacisk miednicy"),(KeyLabel="w dupę"),(KeyLabel="Podcięcie gardła"),(KeyLabel="Hud"),(KeyLabel="Rozwijaj się"),(KeyLabel="Zmniejsz Hud"),(KeyLabel="Różnorodny"),(KeyLabel="Pauza"),(KeyLabel="Zrzut ekranu"),(KeyLabel="Menu"),(KeyLabel="Tablica wyników"),(KeyLabel="Przełącznik tablicy wyników"),(KeyLabel="Czat w grze"),(KeyLabel="Informacje o serwerze"))
Labels=("Movement","Forward","Backward","Strafe Left","Strafe Right","Jump","Walk","Crouch","Strafe Toggle","Looking","Turn Left","Turn Right","Look Up","Look Down","Center View","Weapons","Fire","Alt-Fire","Throw Weapon","Best Weapon","Next Weapon","Prev Weapon","Last Weapon","Weapon Selection","Super Weapon","Shield Gun","Assault Rifle","Bio-Rifle","Shock Rifle","Link Gun","Minigun","Flak Cannon","Rocket Launcher","Lightning Rifle","Translocator","Communication","Say","Team Say","Speech Menu","Taunts","Pelvic Thrust","Ass Smack","Throat Cut","Hud","Grow Hud","Shrink Hud","Miscellaneous","Pause","Screenshot","Menu","ScoreBoard","ScoreBoard Toggle","In Game Chat","Server Info")
Header="["
; EN: Footer="] Perform this action "
Footer="] Wykonaj tę czynność "
; EN: KeyConfigAliasLabel.Caption="Action"
KeyConfigAliasLabel.Caption="Akcja"
; EN: KeyConfigAliasLabel2.Caption="Key 1"
KeyConfigAliasLabel2.Caption="Klawisz 1"
; EN: KeyConfigAliasLabel3.Caption="Key 2"
KeyConfigAliasLabel3.Caption="Klawisz 2"
; EN: KeyConfigKeyList.Hint="Select Control to config"
KeyConfigKeyList.Hint="Wybierz opcję Kontrola, aby skonfigurować"
; EN: KeyResetButton.Caption="RESET"
KeyResetButton.Caption="RESETOWANIE"
; EN: KeyResetButton.Hint="Reset keys to default values"
KeyResetButton.Hint="Zresetuj klawisze do wartości domyślnych"

[Tab_DetailSettings]