[AdminPlayerList]
ColumnHeadings=("Player Name","Unique ID","IP")

[Browser_AddBuddy]
; EN: AddBuddyDesc.Caption="Add Buddy"
AddBuddyDesc.Caption="Lägg till kompis"
; EN: BuddyEntryBox.Caption="Buddy Name: "
BuddyEntryBox.Caption="Kompis namn: "
; EN: CancelButton.Caption="CANCEL"
CancelButton.Caption="AVBRYT"
OkButton.Caption="OK"

[Browser_BuddyList]
ColumnHeadings=("Buddy Name")

[Browser_IRC]
; EN: SystemLabel="System"
SystemLabel="Systemet"
; EN: LeaveChannelCaption="LEAVE CHANNEL"
LeaveChannelCaption="LÄMNA KANAL"
; EN: LeavePrivateCaptionHead="CLOSE "
LeavePrivateCaptionHead="STÄNGA "
; EN: ChooseNewNickText="Choose A New Chat Nickname"
ChooseNewNickText="Välj ett nytt smeknamn för chatt"
; EN: MyBackButton.Caption="BACK"
MyBackButton.Caption="TILLBAKA"
; EN: MyChangeNickButton.Caption="CHANGE NICK"
MyChangeNickButton.Caption="BYT SMÄCK"

[Browser_IconKey]
; EN: DialogText.Caption="Server Icon Key"
DialogText.Caption="Serverikonnyckel"
OkButton.Caption="OK"

[Browser_MOTD]
VersionString="Ver."
; EN: MyBackButton.Caption="BACK"
MyBackButton.Caption="TILLBAKA"
; EN: MyRefreshButton.Caption="REFRESH"
MyRefreshButton.Caption="UPPDATERA"
; EN: MyUpgradeButton.Caption="UPGRADE"
MyUpgradeButton.Caption="UPPGRADERA"

[Browser_OpenIP]
; EN: CancelButton.Caption="CANCEL"
CancelButton.Caption="AVBRYT"
; EN: IpEntryBox.Caption="IP Address: "
IpEntryBox.Caption="IP-adress: "
OkButton.Caption="OK"
; EN: OpenIPDesc.Caption="Enter New IP Address"
OpenIPDesc.Caption="Ange ny IP-adress"

[Browser_Page]
; EN: StartQueryString="Querying Master Server"
StartQueryString="Frågar Master Server"
; EN: AuthFailString="Authentication Failed"
AuthFailString="Autentisering misslyckades"
; EN: ConnFailString="Connection Failed - Retrying"
ConnFailString="Anslutning misslyckades - Försöker igen"
; EN: ConnTimeoutString="Connection Timed Out"
ConnTimeoutString="Anslutningen tog timeout"
; EN: QueryCompleteString="Query Complete!"
QueryCompleteString="Frågan är klar!"
; EN: RefreshCompleteString="Refresh Complete!"
RefreshCompleteString="Uppdatering slutförd!"
; EN: ReadyString="Ready"
ReadyString="Redo"

[Browser_PlayersList]
ColumnHeadings=("Player Name","Score","Stats ID","Ping")

[Browser_Prefs]
; EN: ViewStatsStrings[0]="Any Servers"
ViewStatsStrings[0]="Alla servrar"
; EN: ViewStatsStrings[1]="Only Stats Servers"
ViewStatsStrings[1]="Endast statistikservrar"
; EN: ViewStatsStrings[2]="No Stats Servers"
ViewStatsStrings[2]="Inga statistikservrar"
; EN: MutatorModeStrings[0]="Any Mutators"
MutatorModeStrings[0]="Alla mutatorer"
; EN: MutatorModeStrings[1]="No Mutators"
MutatorModeStrings[1]="Inga mutatorer"
; EN: MutatorModeStrings[2]="This Mutator"
MutatorModeStrings[2]="Denna mutator"
; EN: MutatorModeStrings[3]="Not This Mutator"
MutatorModeStrings[3]="Inte denna mutator"
; EN: WeaponStayStrings[0]="Any Servers"
WeaponStayStrings[0]="Alla servrar"
; EN: WeaponStayStrings[1]="Only Weapon Stay Servers"
WeaponStayStrings[1]="Endast vapenhållningsservrar"
; EN: WeaponStayStrings[2]="No Weapon Stay Servers"
WeaponStayStrings[2]="Inga vapenhållningsservrar"
; EN: TranslocatorStrings[0]="Any Servers"
TranslocatorStrings[0]="Alla servrar"
; EN: TranslocatorStrings[1]="Only Translocator Servers"
TranslocatorStrings[1]="Endast Translocator-servrar"
; EN: TranslocatorStrings[2]="No Translocator Servers"
TranslocatorStrings[2]="Inga Translocator-servrar"
; EN: CustomQuery.Caption="Custom Query"
CustomQuery.Caption="Anpassad fråga"
; EN: FilterTitle.Caption="Server Filtering Options:"
FilterTitle.Caption="Serverfiltreringsalternativ:"
MaxGamespeed.Caption="Max"
; EN: MinGamespeed.Caption="Game Speed Min"
MinGamespeed.Caption="Spelhastighet Min"
; EN: MutatorModeCombo.Caption="Mutators"
MutatorModeCombo.Caption="Mutatorer"
; EN: MyBackButton.Caption="BACK"
MyBackButton.Caption="TILLBAKA"
; EN: MyKeyButton.Caption="ICON KEY"
MyKeyButton.Caption="IKONNYCKEL"
; EN: NoBotServersCheckBox.Caption="No Servers With Bots"
NoBotServersCheckBox.Caption="Inga servrar med bots"
; EN: NoEmptyCheckBox.Caption="No Empty Servers"
NoEmptyCheckBox.Caption="Inga tomma servrar"
; EN: NoFullCheckBox.Caption="No Full Servers"
NoFullCheckBox.Caption="Inga fullständiga servrar"
; EN: NoPasswdCheckBox.Caption="No Passworded Servers"
NoPasswdCheckBox.Caption="Inga lösenordsskyddade servrar"
; EN: OnlyStandardCheckBox.Caption="Only Standard Servers"
OnlyStandardCheckBox.Caption="Endast standardservrar"
; EN: StatsViewCombo.Caption="Stats Servers"
StatsViewCombo.Caption="Statistikservrar"
; EN: TranslocatorCombo.Caption="Translocator"
TranslocatorCombo.Caption="Translokator"
; EN: WeaponStayCombo.Caption="WeaponStay"
WeaponStayCombo.Caption="VapenStay"

[Browser_RulesList]
; EN: TrueString="Enabled"
TrueString="Aktiverad"
; EN: FalseString="Disabled"
FalseString="Inaktiverad"
; EN: ServerModeString="Server Mode"
ServerModeString="Serverläge"
; EN: DedicatedString="Dedicated"
DedicatedString="Tillägnad"
; EN: NonDedicatedString="Non-Dedicated"
NonDedicatedString="Icke-dedikerad"
AdminNameString="Server Admin"
; EN: AdminEmailString="Admin Email"
AdminEmailString="Admin e-post"
; EN: PasswordString="Requires Password"
PasswordString="Kräver lösenord"
; EN: GameStatsString="UT2004 Stats"
GameStatsString="UT2004 Statistik"
; EN: GameSpeedString="Game Speed"
GameSpeedString="Spelhastighet"
MutatorString="Mutator"
BalanceTeamsString="Bots Balance Teams"
; EN: PlayersBalanceTeamsString="Balance Teams"
PlayersBalanceTeamsString="Balansera lag"
; EN: FriendlyFireString="Friendly Fire"
FriendlyFireString="Vådabekämpning"
; EN: GoalScoreString="Goal Score"
GoalScoreString="Målresultat"
; EN: TimeLimitString="Time Limit"
TimeLimitString="Tidsgräns"
; EN: MinPlayersString="Minimum Players (bots)"
MinPlayersString="Minsta antal spelare (bots)"
; EN: TranslocatorString="Translocator"
TranslocatorString="Translokator"
; EN: WeaponStayString="Weapons Stay"
WeaponStayString="Vapen Stay"
ColumnHeadings=("Setting","Value")

[Browser_ServerListPageBase]
; EN: AddFavoriteButton.Caption="ADD FAVORITE"
AddFavoriteButton.Caption="LÄGG TILL FAVORITT"
; EN: BackButton.Caption="BACK"
BackButton.Caption="TILLBAKA"
; EN: JoinButton.Caption="JOIN"
JoinButton.Caption="ANSLUTA SIG"
; EN: RefreshButton.Caption="REFRESH LIST"
RefreshButton.Caption="UPPDATERA LISTA"
SpectateButton.Caption="SPECTATE"

[Browser_ServerListPageBuddy]
; EN: AddBuddyCaption="ADD BUDDY"
AddBuddyCaption="LÄGG TILL KOMPIS"
; EN: RemoveBuddyCaption="REMOVE BUDDY"
RemoveBuddyCaption="BORT KOMPIS"

[Browser_ServerListPageFavorites]
; EN: RemoveFavoriteCaption="REMOVE FAVORITE"
RemoveFavoriteCaption="BORT FAVORITEN"
; EN: AddIPCaption="ADD IP"
AddIPCaption="LÄGG TILL IP"
; EN: RePingCaption="RE-PING LIST"
RePingCaption="ÅTERPINGLISTA"

[Browser_ServerListPageMS]
; EN: QueryFinHead="Query Complete! Received: "
QueryFinHead="Frågan är klar! Mottagen: "
; EN: QueryFinTail=" Servers"
QueryFinTail=" Servrar"
; EN: PingRecvString="Pinging Servers"
PingRecvString="Pingande servrar"
; EN: MustUpgradeString="Upgrade available. Please refresh the News page."
MustUpgradeString="Uppgradering tillgänglig. Uppdatera sidan Nyheter."
; EN: RefreshFinHead="Pinging Complete! "
RefreshFinHead="Pingningen är klar! "
; EN: RefreshFinMid=" Servers, "
RefreshFinMid=" Servrar, "
; EN: RefreshFinTail=" Players"
RefreshFinTail=" Spelare"
; EN: RePingServersCaption="RE-PING LIST"
RePingServersCaption="ÅTERPINGLISTA"
; EN: RefreshCaption="REFRESH LIST"
RefreshCaption="UPPDATERA LISTA"

[Browser_ServerListPageMSCustom]
; EN: MyGameTypeLabel.Caption="Game Type"
MyGameTypeLabel.Caption="Speltyp"

[Browser_ServersList]
IconDescriptions=("Passworded","Stats Enabled","Latest Version","Listen Server","Instagib","Standard Server","UT Classic")
ColumnHeadings=(,"Server Name","Map","Players","Ping")

[DefaultCrosshairs]
; EN: Crosshair=((FriendlyName="Cross (1)"),(FriendlyName="Cross (2)"),(FriendlyName="Cross (3)"),(FriendlyName="Cross (4)"),(FriendlyName="Cross (5)"),(FriendlyName="Dot"),(FriendlyName="Pointer"),(FriendlyName="Triad (1)"),(FriendlyName="Triad (2)"),(FriendlyName="Triad (3)"),(FriendlyName="Bracket (1)"),(FriendlyName="Bracket (2)"),(FriendlyName="Circle (1)"),(FriendlyName="Circle (2)"))
Crosshair=((FriendlyName="Kors (1)"),(FriendlyName="Kors (2)"),(FriendlyName="Kors (3)"),(FriendlyName="Kors (4)"),(FriendlyName="Kors (5)"),(FriendlyName="Punkt"),(FriendlyName="Pekare"),(FriendlyName="Triad (1)"),(FriendlyName="Triad (2)"),(FriendlyName="Triad (3)"),(FriendlyName="Fäste (1)"),(FriendlyName="Fäste (2)"),(FriendlyName="Cirkel (1)"),(FriendlyName="Cirkel (2)"))

[ExtendedConsole]
; EN: AddedCurrentHead="Added Server:"
AddedCurrentHead="Tillagd server:"
; EN: AddedCurrentTail="To Favorites!"
AddedCurrentTail="Till favoriter!"
; EN: ServerFullMsg="Server is now full"
ServerFullMsg="Servern är nu full"
; EN: SMStateName[0]="Speech Menu"
SMStateName[0]="Talmeny"
; EN: SMStateName[1]="Voice Chat"
SMStateName[1]="Röstchatt"
; EN: SMStateName[2]="Acknowledge"
SMStateName[2]="Erkänna"
; EN: SMStateName[3]="Friendly Fire"
SMStateName[3]="Vådabekämpning"
; EN: SMStateName[4]="Order"
SMStateName[4]="Beställa"
; EN: SMStateName[5]="Other"
SMStateName[5]="Övrig"
; EN: SMStateName[6]="Taunt"
SMStateName[6]="Håna"
; EN: SMStateName[7]="Taunt Anim"
SMStateName[7]="Håna Anim"
; EN: SMStateName[8]="Player Select"
SMStateName[8]="Spelarval"
; EN: SMChannelOptions[0]="Join"
SMChannelOptions[0]="Ansluta sig"
; EN: SMChannelOptions[1]="Leave"
SMChannelOptions[1]="Lämna"
; EN: SMChannelOptions[2]="Talk"
SMChannelOptions[2]="Prata"
; EN: SMAllString="[ALL]"
SMAllString="[ALLT]"
; EN: SMMoreString="[MORE]"
SMMoreString="[MER]"

[GUIController]
; EN: DesignModeHints=((Key=" Key",Description="                                Description"),(Key=" (F1)",Description="                                View this help screen"),(Key=" Ctrl + Alt + D",Description="                      Toggles design mode"),(Key=" Ctrl + Alt + E",Description="                      Toggles property editor mode"),(Key=" [Ctrl +] H",Description="                          Toggles active/focused info"),(Key=" [Ctrl +] I",Description="                          Toggle interactive mode"),(Key=" [Ctrl +] P",Description="                          Toggles full MenuOwner chains for active/focused"),(Key=" [Ctrl +] C",Description="                          Copy MoveControl position to clipboard"),(Key=" [Ctrl +] X",Description="                          Export MoveControl to clipboard"),(Key=" [Ctrl +] U",Description="                          Refresh the property window in the designer"),(Key=" [Ctrl +] Up/Down/Left/Right",Description="         Reposition MoveControl using arrow keys"),(Key=" [Ctrl +] +/-",Description="                        Resize MoveControl vertically"),(Key=" [Ctrl +] Num+/Num-",Description="                  Resize selected component horizontally"),(Key=" [Ctrl +] WheelUp",Description="                    Set MoveControl to MoveControl's menuowner"),(Key=" [Ctrl +] WheenDown",Description="                  Set MoveControl to MoveControl's focused control"),(Key=" [(Ctrl + Alt) +] MouseX/Y+LMouse",Description="    Reposition MoveControl using mouse"),(Key=" (Shift)",Description="                             Hides all design mode indicators"),(Key=" (Ctrl + Alt)",Description="                        View focus chain"),(Key=" [Ctrl +] Tab",Description="                        Select new MoveControl"),(Key=" [Ctrl +] LMouse",Description="                     Select new MoveControl"))
DesignModeHints=((Key=" Nyckel",Description="                                Beskrivning"),(Key=" (F1)",Description="                                Visa denna hjälpskärm"),(Key=" Ctrl + Alt + D",Description="                      Växlar designläge"),(Key=" Ctrl + Alt + E",Description="                      Växlar egenskapsredigeringsläge"),(Key=" [Ctrl +] H",Description="                          Växlar mellan aktiv/fokuserad information"),(Key=" [Ctrl +] I",Description="                          Växla interaktivt läge"),(Key=" [Ctrl +] P",Description="                          Växlar hela MenuOwner-kedjor för aktiv/fokuserad"),(Key=" [Ctrl +] C",Description="                          Kopiera MoveControl-position till urklipp"),(Key=" [Ctrl +] X",Description="                          Exportera MoveControl till urklipp"),(Key=" [Ctrl +] U",Description="                          Uppdatera egenskapsfönstret i designern"),(Key=" [Ctrl +] Upp/Ner/Vänster/Höger",Description="         Flytta MoveControl med piltangenterna"),(Key=" [Ctrl +] +/-",Description="                        Ändra storlek på MoveControl vertikalt"),(Key=" [Ctrl +] Num+/Num-",Description="                  Ändra storlek på den valda komponenten horisontellt"),(Key=" [Ctrl +] WheelUp",Description="                    Ställ in MoveControl till MoveControls menyägare"),(Key=" [Ctrl +] WheenDown",Description="                  Ställ in MoveControl på MoveControls fokuserade kontroll"),(Key=" [(Ctrl + Alt) +] MouseX/Y+LMouse",Description="    Flytta MoveControl med musen"),(Key=" (Flytta)",Description="                             Döljer alla designlägesindikatorer"),(Key=" (Ctrl + Alt)",Description="                        Se fokuskedjan"),(Key=" [Ctrl +] Tab",Description="                        Välj ny MoveControl"),(Key=" [Ctrl +] LMous",Description="                     Välj ny MoveControl"))

[GUIQuestionPage]
ButtonNames=("Ok","Cancel","Retry","Continue","Yes","No","Abort","Ignore")

[HudBTeamDeathMatch]
; EN: LinkEstablishedMessage="LINK ESTABLISHED"
LinkEstablishedMessage="LÄNK ETABLERAD"

[HudBase]
InstructionFontName="UT2003Fonts.jFontMono800x600"
; EN: LevelActionLoading="LOADING..."
LevelActionLoading="LÄSER IN..."
; EN: LevelActionPaused="PAUSED"
LevelActionPaused="PAUS"
LevelActionFontName="UT2003Fonts.FontMedium"
; EN: WonMatchPostFix=" won the match!"
WonMatchPostFix=" vann matchen!"
; EN: WaitingToSpawn="Press [Fire] to join the match!"
WaitingToSpawn="Tryck på [Fire] för att gå med i matchen!"
; EN: AtMenus="Press [ESC] to close menu"
AtMenus="Tryck på [ESC] för att stänga menyn"
; EN: YouveWonTheMatch="You've won the match!"
YouveWonTheMatch="Du har vunnit matchen!"
; EN: YouveLostTheMatch="You've lost the match."
YouveLostTheMatch="Du har förlorat matchen."
; EN: NowViewing="Now viewing"
NowViewing="Tittar nu"
; EN: ScoreText="Score"
ScoreText="Göra"
; EN: InitialViewingString="Press Fire to View a different Player"
InitialViewingString="Tryck på Fire för att se en annan spelare"
ProgressFontName="UT2003Fonts.FontMedium"
FontArrayNames[0]="UT2003Fonts.FontEurostile37"
FontArrayNames[1]="UT2003Fonts.FontEurostile29"
FontArrayNames[2]="UT2003Fonts.FontEurostile24"
FontArrayNames[3]="UT2003Fonts.FontEurostile21"
FontArrayNames[4]="UT2003Fonts.FontEurostile17"
FontArrayNames[5]="UT2003Fonts.FontEurostile14"
FontArrayNames[6]="UT2003Fonts.FontEurostile12"
FontArrayNames[7]="UT2003Fonts.FontEurostile9"
FontArrayNames[8]="UT2003Fonts.FontSmallText"

[HudCTeamDeathMatch]
; EN: LinkEstablishedMessage="LINK ESTABLISHED"
LinkEstablishedMessage="LÄNK ETABLERAD"

[IRCLink]
; EN: InvalidAddressText="Invalid server address, aborting."
InvalidAddressText="Ogiltig serveradress, avbryter."
; EN: ErrorBindingText="Error binding local port, aborting."
ErrorBindingText="Fel vid bindning av lokal port, avbryter."
; EN: ResolveFailedText="Failed to resolve server address, aborting."
ResolveFailedText="Det gick inte att lösa serveradressen, avbryter."
; EN: ConnectedText="Connected."
ConnectedText="Ansluten."
; EN: ConnectingToText="Connecting to"
ConnectingToText="Ansluter till"
; EN: TimeOutError="Timeout connecting to server."
TimeOutError="Timeout ansluter till servern."
; EN: InviteString="invites you to join"
InviteString="inbjuder dig att gå med"
; EN: NickInUseText="Nickname Already In Use"
NickInUseText="Smeknamn används redan"
; EN: NickInvalidText="Nickname Is Invalid"
NickInvalidText="Smeknamnet är ogiltigt"

[IRC_NewNick]
; EN: NewNickEntry.Caption="New Nickname: "
NewNickEntry.Caption="Nytt smeknamn: "
OkButton.Caption="OK"

[IRC_Page]
; EN: HasLeftText="has left"
HasLeftText="har lämnat"
; EN: HasJoinedText="has joined"
HasJoinedText="Anslöt sig"
; EN: WasKickedByText="was kicked by"
WasKickedByText="blev sparkad av"
; EN: NowKnownAsText="is now known as"
NowKnownAsText="är nu känd som"
; EN: QuitText="Quit"
QuitText="Sluta med"
; EN: SetsModeText="sets mode"
SetsModeText="ställer in läge"
; EN: NewTopicText="Topic"
NewTopicText="Ämne"

[IRC_System]
; EN: NotInAChannelText="Not in a channel!"
NotInAChannelText="Inte i en kanal!"
; EN: KickedFromText="You were kicked from"
KickedFromText="Du blev utsparkad"
; EN: ByText="by"
ByText="förbi"
; EN: IsAwayText="is away"
IsAwayText="är borta"
; EN: ConnectText="CONNECT"
ConnectText="ANSLUTA"
; EN: DisconnectText="DISCONNECT"
DisconnectText="KOPPLA IFRÅN"
; EN: MyChannelLabel.Caption="Channel"
MyChannelLabel.Caption="Kanal"
; EN: MyJoinChannelButton.Caption="JOIN CHANNEL"
MyJoinChannelButton.Caption="GÅ MED I KANAL"
; EN: MyRemoveChannelButton.Caption="REMOVE CHANNEL"
MyRemoveChannelButton.Caption="BORT KANAL"
; EN: MyRemoveServerButton.Caption="REMOVE SERVER"
MyRemoveServerButton.Caption="BORT SERVER"
MyServerLabel.Caption="Server"

[JoeTest]
; EN: TestButton1.Caption="Close Window"
TestButton1.Caption="Stäng fönstret"
TitleText.Caption="Joe's Amazing Test GUI"

[JoeTestPanelA]
TestButtonA.Caption="Wow"
; EN: TestButtonB.Caption="Damn"
TestButtonB.Caption="Attans"

[ScoreBoardDeathMatch]
; EN: RankText="RANK"
RankText="RANG"
; EN: PlayerText="PLAYER"
PlayerText="SPELARE"
; EN: PointsText="SCORE"
PointsText="GÖRA"
; EN: TimeText="TIME:"
TimeText="TID:"
PingText="PING:"
PLText="P/L:"
; EN: DeathsText="DEATHS"
DeathsText="DÖDSFALL"
; EN: AdminText="ADMIN"
AdminText="ADMINISTRATION"
; EN: NetText="NET"
NetText="NETTO"
; EN: FooterText="Elapsed Time:"
FooterText="Passerad tid:"
MatchIDText="UT2004 Stats Match ID"
; EN: OutText="OUT"
OutText="UT"
; EN: OutFireText="   You are OUT. Fire to view other players."
OutFireText="   Du är ute. Elda för att se andra spelare."
; EN: ReadyText="READY"
ReadyText="REDO"
; EN: NotReadyText="NOT RDY"
NotReadyText="INTE RDY"
; EN: SkillLevel[0]="NOVICE"
SkillLevel[0]="NYBÖRJARE"
; EN: SkillLevel[1]="AVERAGE"
SkillLevel[1]="GENOMSNITT"
; EN: SkillLevel[2]="EXPERIENCED"
SkillLevel[2]="ERFAREN"
; EN: SkillLevel[3]="SKILLED"
SkillLevel[3]="SKICKLIG"
; EN: SkillLevel[4]="ADEPT"
SkillLevel[4]="SKICKLIG"
; EN: SkillLevel[5]="MASTERFUL"
SkillLevel[5]="MÄSTERLIGT"
; EN: SkillLevel[6]="INHUMAN"
SkillLevel[6]="OMÄNSKLIG"
; EN: SkillLevel[7]="GODLIKE"
SkillLevel[7]="GUDALIK"
; EN: MaxLives="MAX LIVES:"
MaxLives="MAX LIV:"
FragLimit="FRAG LIMIT:"
FPH="PPH"
; EN: GameType="GAME"
GameType="SPEL"
; EN: MapName=" in "
MapName=" i "
; EN: Restart="   You were killed. Press Fire to respawn!"
Restart="   Du dödades. Tryck på Fire för att återuppta!"
; EN: Continue=" Press [Fire] to continue!"
Continue=" Tryck på [Fire] för att fortsätta!"
; EN: Ended="The match has ended."
Ended="Matchen är avslutad."
; EN: TimeLimit="REMAINING TIME:"
TimeLimit="ÅTERSTÅENDE TID:"
Spacer=" "

[ScoreBoardTeamDeathMatch]
; EN: FragLimit="SCORE LIMIT:"
FragLimit="POÄNGGRÄNS:"

[ServerBrowser]
MutantTypeName="Mutant"
InvasionTypeName="Invasion"
; EN: LMSTypeName="Last Man Standing"
LMSTypeName="Sista man stående"
MutantType="xMutantGame"
InvasionType="Invasion"
LMSType="xLastManStanding"
; EN: MyBRServerListPage.PageCaption="Bombing Run"
MyBRServerListPage.PageCaption="Bombning Run"
; EN: MyBuddiesPage.PageCaption="Buddies"
MyBuddiesPage.PageCaption="Kompisar"
MyCTFServerListPage.PageCaption="CTF"
; EN: MyCustomServerListPage.PageCaption="Custom"
MyCustomServerListPage.PageCaption="Beställnings"
MyDMServerListPage.PageCaption="DM"
; EN: MyDomServerListPage.PageCaption="Double Dom"
MyDomServerListPage.PageCaption="Dubbel Dom"
; EN: MyFavoritesPage.PageCaption="Favorites"
MyFavoritesPage.PageCaption="Favoriter"
; EN: MyIRCPage.PageCaption="Chat"
MyIRCPage.PageCaption="Chatt"
MyLANPage.PageCaption="LAN"
; EN: MyMOTDPage.PageCaption="News"
MyMOTDPage.PageCaption="Nyheter"
; EN: MyPrefsPage.PageCaption="Filter"
MyPrefsPage.PageCaption="Filtrera"
MyTDMServerListPage.PageCaption="Team DM"
; EN: ServerBrowserHeader.Caption="Server Browser"
ServerBrowserHeader.Caption="Server webbläsare"

[Tab_AdminPlayerList]
; EN: AdminPlayerBan.Caption="Ban"
AdminPlayerBan.Caption="Förbjuda"
; EN: AdminPlayerBan.Hint="Ban this player"
AdminPlayerBan.Hint="Ban den här spelaren"
; EN: AdminPlayerKick.Caption="Kick"
AdminPlayerKick.Caption="Sparka"
; EN: AdminPlayerKick.Hint="Kick this Player"
AdminPlayerKick.Hint="Sparka den här spelaren"

[Tab_AudioSettings]
; EN: AudioModes[0]="Software 3D Audio"
AudioModes[0]="Programvara för 3D-ljud"
; EN: AudioModes[1]="Hardware 3D Audio"
AudioModes[1]="Hårdvara 3D-ljud"
; EN: AudioModes[2]="Hardware 3D Audio + EAX"
AudioModes[2]="Hårdvara 3D Audio + EAX"
; EN: AudioModes[3]="Safe Mode"
AudioModes[3]="Säkert läge"
; EN: VoiceModes[0]="All"
VoiceModes[0]="Allt"
; EN: VoiceModes[1]="No auto-taunts"
VoiceModes[1]="Inga automatiska hån"
; EN: VoiceModes[2]="No taunts"
VoiceModes[2]="Inga hån"
; EN: VoiceModes[3]="None"
VoiceModes[3]="Ingen"
; EN: AnnounceModes[0]="None"
AnnounceModes[0]="Ingen"
AnnounceModes[1]="Minimal"
; EN: AnnounceModes[2]="All"
AnnounceModes[2]="Allt"
; EN: AudioAnnounce.Caption="Announcements"
AudioAnnounce.Caption="Meddelanden"
; EN: AudioAnnounce.Hint="Adjusts the amount of in-game announcements."
AudioAnnounce.Hint="Justerar mängden meddelanden i spelet."
; EN: AudioAnnouncerPack.Caption="Announcer Voice"
AudioAnnouncerPack.Caption="Annonsörens röst"
; EN: AudioAnnouncerPack.Hint="Select the Announcer for tonight's game."
AudioAnnouncerPack.Hint="Välj Announcer för kvällens match."
; EN: AudioAutoTaunt.Caption="Auto-Taunt"
AudioAutoTaunt.Caption="Auto-Hån"
; EN: AudioAutoTaunt.Hint="Enables your in-game player to automatically taunt opponents."
AudioAutoTaunt.Hint="Gör det möjligt för din spelare i spelet att automatiskt håna motståndare."
; EN: AudioEffectsVolumeLabel.Caption="Effects Volume"
AudioEffectsVolumeLabel.Caption="Effektvolym"
; EN: AudioEffectsVolumeSlider.Hint="Changes the volume of all in game sound effects."
AudioEffectsVolumeSlider.Hint="Ändrar volymen för alla ljudeffekter i spelet."
; EN: AudioLowDetail.Caption="Low Sound Detail"
AudioLowDetail.Caption="Låg ljuddetalj"
; EN: AudioLowDetail.Hint="Lowers quality of sound."
AudioLowDetail.Hint="Sänker ljudkvaliteten."
; EN: AudioMatureTaunts.Caption="Mature Taunts"
AudioMatureTaunts.Caption="Mogna hån"
; EN: AudioMatureTaunts.Hint="Enables off-color commentary."
AudioMatureTaunts.Hint="Möjliggör ofärgade kommentarer."
; EN: AudioMessageBeep.Caption="Message Beep"
AudioMessageBeep.Caption="Meddelande Pip"
; EN: AudioMessageBeep.Hint="Enables a beep when receiving a text message from other players."
AudioMessageBeep.Hint="Aktiverar ett pip när du tar emot ett textmeddelande från andra spelare."
; EN: AudioMode.Caption="Audio Mode"
AudioMode.Caption="Ljudläge"
; EN: AudioMode.Hint="Changes the audio system mode."
AudioMode.Hint="Ändrar ljudsystemets läge."
; EN: AudioMusicVolumeLabel.Caption="Music Volume"
AudioMusicVolumeLabel.Caption="Musikvolym"
; EN: AudioMusicVolumeSlider.Hint="Changes the volume of the background music."
AudioMusicVolumeSlider.Hint="Ändrar volymen på bakgrundsmusiken."
; EN: AudioPlayVoices.Caption="Play Voices"
AudioPlayVoices.Caption="Spela röster"
; EN: AudioPlayVoices.Hint="Defines the types of voice messages to play."
AudioPlayVoices.Hint="Definierar vilka typer av röstmeddelanden som ska spelas upp."
; EN: AudioReverseStereo.Caption="Reverse Stereo"
AudioReverseStereo.Caption="Omvänd stereo"
; EN: AudioReverseStereo.Hint="Reverses the left and right audio channels."
AudioReverseStereo.Hint="Vänder om vänster och höger ljudkanal."
; EN: AudioVoiceVolumeLabel.Caption="Announcer Volume"
AudioVoiceVolumeLabel.Caption="Announcer Volym"
; EN: AudioVoiceVolumeSlider.Hint="Changes the volume of all in game voice messages."
AudioVoiceVolumeSlider.Hint="Ändrar volymen för alla röstmeddelanden i spelet."

[Tab_ControlSettings]
; EN: Bindings=((KeyLabel="Movement"),(KeyLabel="Forward"),(KeyLabel="Backward"),(KeyLabel="Strafe Left"),(KeyLabel="Strafe Right"),(KeyLabel="Jump"),(KeyLabel="Walk"),(KeyLabel="Crouch"),(KeyLabel="Strafe Toggle"),(KeyLabel="Looking"),(KeyLabel="Turn Left"),(KeyLabel="Turn Right"),(KeyLabel="Look Up"),(KeyLabel="Look Down"),(KeyLabel="Center View"),(KeyLabel="Weapons"),(KeyLabel="Fire"),(KeyLabel="Alt-Fire"),(KeyLabel="Throw Weapon"),(KeyLabel="Best Weapon"),(KeyLabel="Next Weapon"),(KeyLabel="Prev Weapon"),(KeyLabel="Last Weapon"),(KeyLabel="Weapon Selection"),(KeyLabel="Super Weapon"),(KeyLabel="Shield Gun"),(KeyLabel="Assault Rifle"),(KeyLabel="Bio-Rifle"),(KeyLabel="Shock Rifle"),(KeyLabel="Link Gun"),(KeyLabel="Minigun"),(KeyLabel="Flak Cannon"),(KeyLabel="Rocket Launcher"),(KeyLabel="Lightning Rifle"),(KeyLabel="Translocator"),(KeyLabel="Communication"),(KeyLabel="Say"),(KeyLabel="Team Say"),(KeyLabel="Speech Menu"),(KeyLabel="Taunts"),(KeyLabel="Pelvic Thrust"),(KeyLabel="Ass Smack"),(KeyLabel="Throat Cut"),(KeyLabel="Hud"),(KeyLabel="Grow Hud"),(KeyLabel="Shrink Hud"),(KeyLabel="Miscellaneous"),(KeyLabel="Pause"),(KeyLabel="Screenshot"),(KeyLabel="Menu"),(KeyLabel="ScoreBoard"),(KeyLabel="ScoreBoard Toggle"),(KeyLabel="In Game Chat"),(KeyLabel="Server Info"))
Bindings=((KeyLabel="Rörelse"),(KeyLabel="Fram"),(KeyLabel="Bakåt"),(KeyLabel="Strafe vänster"),(KeyLabel="Strafe Right"),(KeyLabel="Hoppa"),(KeyLabel="Promenad"),(KeyLabel="Huka"),(KeyLabel="Strafe Toggle"),(KeyLabel="Tittar"),(KeyLabel="Sväng vänster"),(KeyLabel="Sväng höger"),(KeyLabel="Slå upp"),(KeyLabel="Titta ner"),(KeyLabel="Mittvy"),(KeyLabel="Vapen"),(KeyLabel="Brand"),(KeyLabel="Alt-Fire"),(KeyLabel="Kasta vapen"),(KeyLabel="Bästa vapnet"),(KeyLabel="Nästa vapen"),(KeyLabel="Föregående vapen"),(KeyLabel="Sista vapnet"),(KeyLabel="Vapenval"),(KeyLabel="Supervapen"),(KeyLabel="Shield Gun"),(KeyLabel="Automatkarbin"),(KeyLabel="Bio-gevär"),(KeyLabel="Stötgevär"),(KeyLabel="Link Gun"),(KeyLabel="Minigun"),(KeyLabel="Flakkanon"),(KeyLabel="Raketgevär"),(KeyLabel="Blixtgevär"),(KeyLabel="Translokator"),(KeyLabel="Kommunikation"),(KeyLabel="Säga"),(KeyLabel="Team Säg"),(KeyLabel="Talmeny"),(KeyLabel="Hån"),(KeyLabel="Bäckendragning"),(KeyLabel="Ass Smack"),(KeyLabel="Skär i halsen"),(KeyLabel="Hud"),(KeyLabel="Grow Hud"),(KeyLabel="Krymp Hud"),(KeyLabel="Diverse"),(KeyLabel="Paus"),(KeyLabel="Skärmdump"),(KeyLabel="Meny"),(KeyLabel="Resultattavla"),(KeyLabel="Växla poängtavla"),(KeyLabel="I Game Chat"),(KeyLabel="Server info"))
Labels=("Movement","Forward","Backward","Strafe Left","Strafe Right","Jump","Walk","Crouch","Strafe Toggle","Looking","Turn Left","Turn Right","Look Up","Look Down","Center View","Weapons","Fire","Alt-Fire","Throw Weapon","Best Weapon","Next Weapon","Prev Weapon","Last Weapon","Weapon Selection","Super Weapon","Shield Gun","Assault Rifle","Bio-Rifle","Shock Rifle","Link Gun","Minigun","Flak Cannon","Rocket Launcher","Lightning Rifle","Translocator","Communication","Say","Team Say","Speech Menu","Taunts","Pelvic Thrust","Ass Smack","Throat Cut","Hud","Grow Hud","Shrink Hud","Miscellaneous","Pause","Screenshot","Menu","ScoreBoard","ScoreBoard Toggle","In Game Chat","Server Info")
Header="["
; EN: Footer="] Perform this action "
Footer="] Utför denna åtgärd "
; EN: KeyConfigAliasLabel.Caption="Action"
KeyConfigAliasLabel.Caption="Handling"
; EN: KeyConfigAliasLabel2.Caption="Key 1"
KeyConfigAliasLabel2.Caption="Nyckel 1"
; EN: KeyConfigAliasLabel3.Caption="Key 2"
KeyConfigAliasLabel3.Caption="Nyckel 2"
; EN: KeyConfigKeyList.Hint="Select Control to config"
KeyConfigKeyList.Hint="Välj Kontroll för att konfigurera"
; EN: KeyResetButton.Caption="RESET"
KeyResetButton.Caption="ÅTERSTÄLLA"
; EN: KeyResetButton.Hint="Reset keys to default values"
KeyResetButton.Hint="Återställ nycklar till standardvärden"

[Tab_DetailSettings]
; EN: DetailLevels[0]="Lowest"
DetailLevels[0]="Lägst"
; EN: DetailLevels[1]="Lower"
DetailLevels[1]="Lägre"
; EN: DetailLevels[2]="Low"
DetailLevels[2]="Låg"
; EN: DetailLevels[3]="Normal"
DetailLevels[3]="Vanligt"
; EN: DetailLevels[4]="High"
DetailLevels[4]="Hög"
; EN: DetailLevels[5]="Higher"
DetailLevels[5]="Högre"
; EN: DetailLevels[6]="Highest"
DetailLevels[6]="Högsta"
; EN: DetailActorDetail.Caption="World Detail"
DetailActorDetail.Caption="Världsdetalj"
; EN: DetailActorDetail.Hint="Changes the level of detail used for optional geometry and effects."
DetailActorDetail.Hint="Ändrar detaljnivån som används för valfri geometri och effekter."
; EN: DetailBlob.Caption="Use Blob Shadows"
DetailBlob.Caption="Använd Blob Shadows"
; EN: DetailBlob.Hint="Enable blob shadows.  Recommended for low-performance PCs."
DetailBlob.Hint="Aktivera blob-skuggor. Rekommenderas för datorer med låg prestanda."
; EN: DetailCharacterDetail.Caption="Character Detail"
DetailCharacterDetail.Caption="Karaktär detalj"
; EN: DetailCharacterDetail.Hint="Changes how much character detail will be rendered."
DetailCharacterDetail.Hint="Ändrar hur mycket teckendetaljer som ska renderas."
; EN: DetailCharacterShadows.Caption="Character Shadows"
DetailCharacterShadows.Caption="Karaktärsskuggor"
; EN: DetailCharacterShadows.Hint="Enables character shadows."
DetailCharacterShadows.Hint="Aktiverar teckenskuggor."
DetailCoronas.Caption="Coronas"
; EN: DetailCoronas.Hint="Enables coronas."
DetailCoronas.Hint="Aktiverar coronas."
; EN: DetailDecalStay.Caption="Decal Stay"
DetailDecalStay.Caption="Dekal Stay"
; EN: DetailDecalStay.Hint="Changes how long weapon scarring effects stay around."
DetailDecalStay.Hint="Ändrar hur länge vapenärreffekter stannar kvar."
; EN: DetailDecals.Caption="Decals"
DetailDecals.Caption="Dekaler"
; EN: DetailDecals.Hint="Enables weapon scarring effects."