[AdminPlayerList]
ColumnHeadings=("Player Name","Unique ID","IP")

[Browser_AddBuddy]
; EN: AddBuddyDesc.Caption="Add Buddy"
AddBuddyDesc.Caption="Добавить контакт"
; EN: BuddyEntryBox.Caption="Buddy Name: "
BuddyEntryBox.Caption="Имя друга: "
; EN: CancelButton.Caption="CANCEL"
CancelButton.Caption="ОТМЕНА"
; EN: OkButton.Caption="OK"
OkButton.Caption="Ok"

[Browser_BuddyList]
ColumnHeadings=("Buddy Name")

[Browser_IRC]
; EN: SystemLabel="System"
SystemLabel="Система"
; EN: LeaveChannelCaption="LEAVE CHANNEL"
LeaveChannelCaption="ВЫЙТИ ИЗ КАНАЛА"
; EN: LeavePrivateCaptionHead="CLOSE "
LeavePrivateCaptionHead="БЛИЗКО "
; EN: ChooseNewNickText="Choose A New Chat Nickname"
ChooseNewNickText="Выберите новый псевдоним для чата"
; EN: MyBackButton.Caption="BACK"
MyBackButton.Caption="НАЗАД"
; EN: MyChangeNickButton.Caption="CHANGE NICK"
MyChangeNickButton.Caption="ИЗМЕНИТЬ НИК"

[Browser_IconKey]
; EN: DialogText.Caption="Server Icon Key"
DialogText.Caption="Ключ значка сервера"
; EN: OkButton.Caption="OK"
OkButton.Caption="Ok"

[Browser_MOTD]
; EN: VersionString="Ver."
VersionString="Вер."
; EN: MyBackButton.Caption="BACK"
MyBackButton.Caption="НАЗАД"
; EN: MyRefreshButton.Caption="REFRESH"
MyRefreshButton.Caption="ОБНОВИТЬ"
; EN: MyUpgradeButton.Caption="UPGRADE"
MyUpgradeButton.Caption="ОБНОВИТЬ"

[Browser_OpenIP]
; EN: CancelButton.Caption="CANCEL"
CancelButton.Caption="ОТМЕНА"
; EN: IpEntryBox.Caption="IP Address: "
IpEntryBox.Caption="Айпи адрес: "
; EN: OkButton.Caption="OK"
OkButton.Caption="Ok"
; EN: OpenIPDesc.Caption="Enter New IP Address"
OpenIPDesc.Caption="Введите новый IP-адрес"

[Browser_Page]
; EN: StartQueryString="Querying Master Server"
StartQueryString="Запросы к главному серверу"
; EN: AuthFailString="Authentication Failed"
AuthFailString="Ошибка аутентификации"
; EN: ConnFailString="Connection Failed - Retrying"
ConnFailString="Ошибка подключения - повторная попытка"
; EN: ConnTimeoutString="Connection Timed Out"
ConnTimeoutString="Время соединения истекло"
; EN: QueryCompleteString="Query Complete!"
QueryCompleteString="Запрос завершен!"
; EN: RefreshCompleteString="Refresh Complete!"
RefreshCompleteString="Обновление завершено!"
; EN: ReadyString="Ready"
ReadyString="Готовый"

[Browser_PlayersList]
ColumnHeadings=("Player Name","Score","Stats ID","Ping")

[Browser_Prefs]
; EN: ViewStatsStrings[0]="Any Servers"
ViewStatsStrings[0]="Любые серверы"
; EN: ViewStatsStrings[1]="Only Stats Servers"
ViewStatsStrings[1]="Только серверы статистики"
; EN: ViewStatsStrings[2]="No Stats Servers"
ViewStatsStrings[2]="Нет серверов статистики"
; EN: MutatorModeStrings[0]="Any Mutators"
MutatorModeStrings[0]="Любые мутаторы"
; EN: MutatorModeStrings[1]="No Mutators"
MutatorModeStrings[1]="Нет мутаторов"
; EN: MutatorModeStrings[2]="This Mutator"
MutatorModeStrings[2]="Этот мутатор"
; EN: MutatorModeStrings[3]="Not This Mutator"
MutatorModeStrings[3]="Не этот мутатор"
; EN: WeaponStayStrings[0]="Any Servers"
WeaponStayStrings[0]="Любые серверы"
; EN: WeaponStayStrings[1]="Only Weapon Stay Servers"
WeaponStayStrings[1]="Только серверы для оружия"
; EN: WeaponStayStrings[2]="No Weapon Stay Servers"
WeaponStayStrings[2]="Серверы без оружия"
; EN: TranslocatorStrings[0]="Any Servers"
TranslocatorStrings[0]="Любые серверы"
; EN: TranslocatorStrings[1]="Only Translocator Servers"
TranslocatorStrings[1]="Только серверы Translocator"
; EN: TranslocatorStrings[2]="No Translocator Servers"
TranslocatorStrings[2]="Нет серверов Translocator"
; EN: CustomQuery.Caption="Custom Query"
CustomQuery.Caption="Пользовательский запрос"
; EN: FilterTitle.Caption="Server Filtering Options:"
FilterTitle.Caption="Параметры фильтрации сервера:"
; EN: MaxGamespeed.Caption="Max"
MaxGamespeed.Caption="Максимум"
; EN: MinGamespeed.Caption="Game Speed Min"
MinGamespeed.Caption="Скорость игры мин."
; EN: MutatorModeCombo.Caption="Mutators"
MutatorModeCombo.Caption="Мутаторы"
; EN: MyBackButton.Caption="BACK"
MyBackButton.Caption="НАЗАД"
; EN: MyKeyButton.Caption="ICON KEY"
MyKeyButton.Caption="КЛЮЧ-ЗНАЧОК"
; EN: NoBotServersCheckBox.Caption="No Servers With Bots"
NoBotServersCheckBox.Caption="Нет серверов с ботами"
; EN: NoEmptyCheckBox.Caption="No Empty Servers"
NoEmptyCheckBox.Caption="Нет пустых серверов"
; EN: NoFullCheckBox.Caption="No Full Servers"
NoFullCheckBox.Caption="Нет полных серверов"
; EN: NoPasswdCheckBox.Caption="No Passworded Servers"
NoPasswdCheckBox.Caption="Нет серверов с паролем"
; EN: OnlyStandardCheckBox.Caption="Only Standard Servers"
OnlyStandardCheckBox.Caption="Только стандартные серверы"
; EN: StatsViewCombo.Caption="Stats Servers"
StatsViewCombo.Caption="Серверы статистики"
; EN: TranslocatorCombo.Caption="Translocator"
TranslocatorCombo.Caption="Транслокатор"
; EN: WeaponStayCombo.Caption="WeaponStay"
WeaponStayCombo.Caption="Оружие"

[Browser_RulesList]
; EN: TrueString="Enabled"
TrueString="Включено"
; EN: FalseString="Disabled"
FalseString="Отключено"
; EN: ServerModeString="Server Mode"
ServerModeString="Серверный режим"
; EN: DedicatedString="Dedicated"
DedicatedString="Преданный"
; EN: NonDedicatedString="Non-Dedicated"
NonDedicatedString="Не посвященный"
; EN: AdminNameString="Server Admin"
AdminNameString="Администратор сервера"
; EN: AdminEmailString="Admin Email"
AdminEmailString="Электронная почта администратора"
; EN: PasswordString="Requires Password"
PasswordString="Требуется пароль"
; EN: GameStatsString="UT2004 Stats"
GameStatsString="Статистика UT2004"
; EN: GameSpeedString="Game Speed"
GameSpeedString="Скорость игры"
; EN: MutatorString="Mutator"
MutatorString="Мутатор"
; EN: BalanceTeamsString="Bots Balance Teams"
BalanceTeamsString="Команды баланса ботов"
; EN: PlayersBalanceTeamsString="Balance Teams"
PlayersBalanceTeamsString="Баланс команд"
; EN: FriendlyFireString="Friendly Fire"
FriendlyFireString="Огонь по своим"
; EN: GoalScoreString="Goal Score"
GoalScoreString="Голы"
; EN: TimeLimitString="Time Limit"
TimeLimitString="Лимит времени"
; EN: MinPlayersString="Minimum Players (bots)"
MinPlayersString="Минимальное количество игроков (ботов)"
; EN: TranslocatorString="Translocator"
TranslocatorString="Транслокатор"
; EN: WeaponStayString="Weapons Stay"
WeaponStayString="Оружие Пребывание"
ColumnHeadings=("Setting","Value")

[Browser_ServerListPageBase]
; EN: AddFavoriteButton.Caption="ADD FAVORITE"
AddFavoriteButton.Caption="ДОБАВИТЬ ИЗБРАННОЕ"
; EN: BackButton.Caption="BACK"
BackButton.Caption="НАЗАД"
; EN: JoinButton.Caption="JOIN"
JoinButton.Caption="ПРИСОЕДИНИТЬСЯ"
; EN: RefreshButton.Caption="REFRESH LIST"
RefreshButton.Caption="ОБНОВИТЬ СПИСОК"
; EN: SpectateButton.Caption="SPECTATE"
SpectateButton.Caption="ЗНАЧИТЕЛЬНЫЙ"

[Browser_ServerListPageBuddy]
; EN: AddBuddyCaption="ADD BUDDY"
AddBuddyCaption="ДОБАВИТЬ КОНТАКТ"
; EN: RemoveBuddyCaption="REMOVE BUDDY"
RemoveBuddyCaption="УДАЛИТЬ БАДДИ"

[Browser_ServerListPageFavorites]
; EN: RemoveFavoriteCaption="REMOVE FAVORITE"
RemoveFavoriteCaption="УДАЛИТЬ ИЗБРАННОЕ"
; EN: AddIPCaption="ADD IP"
AddIPCaption="ДОБАВИТЬ IP"
; EN: RePingCaption="RE-PING LIST"
RePingCaption="ПОВТОРНЫЙ СПИСОК"

[Browser_ServerListPageMS]
; EN: QueryFinHead="Query Complete! Received: "
QueryFinHead="Запрос завершен! Полученный: "
; EN: QueryFinTail=" Servers"
QueryFinTail=" Серверы"
; EN: PingRecvString="Pinging Servers"
PingRecvString="Pinging серверов"
; EN: MustUpgradeString="Upgrade available. Please refresh the News page."
MustUpgradeString="Доступно обновление. Обновите страницу новостей."
; EN: RefreshFinHead="Pinging Complete! "
RefreshFinHead="Пинг завершен! "
; EN: RefreshFinMid=" Servers, "
RefreshFinMid=" Серверы, "
; EN: RefreshFinTail=" Players"
RefreshFinTail=" Игроки"
; EN: RePingServersCaption="RE-PING LIST"
RePingServersCaption="ПОВТОРНЫЙ СПИСОК"
; EN: RefreshCaption="REFRESH LIST"
RefreshCaption="ОБНОВИТЬ СПИСОК"

[Browser_ServerListPageMSCustom]
; EN: MyGameTypeLabel.Caption="Game Type"
MyGameTypeLabel.Caption="Тип игры"

[Browser_ServersList]
IconDescriptions=("Passworded","Stats Enabled","Latest Version","Listen Server","Instagib","Standard Server","UT Classic")
ColumnHeadings=(,"Server Name","Map","Players","Ping")

[DefaultCrosshairs]
; EN: Crosshair=((FriendlyName="Cross (1)"),(FriendlyName="Cross (2)"),(FriendlyName="Cross (3)"),(FriendlyName="Cross (4)"),(FriendlyName="Cross (5)"),(FriendlyName="Dot"),(FriendlyName="Pointer"),(FriendlyName="Triad (1)"),(FriendlyName="Triad (2)"),(FriendlyName="Triad (3)"),(FriendlyName="Bracket (1)"),(FriendlyName="Bracket (2)"),(FriendlyName="Circle (1)"),(FriendlyName="Circle (2)"))
Crosshair=((FriendlyName="Крест (1)"),(FriendlyName="Крест (2)"),(FriendlyName="Крест (3)"),(FriendlyName="Крест (4)"),(FriendlyName="Крест (5)"),(FriendlyName="Точка"),(FriendlyName="Указатель"),(FriendlyName="Триада (1)"),(FriendlyName="Триада (2)"),(FriendlyName="Триада (3)"),(FriendlyName="Кронштейн (1)"),(FriendlyName="Кронштейн (2)"),(FriendlyName="Круг (1)"),(FriendlyName="Круг (2)"))

[ExtendedConsole]
; EN: AddedCurrentHead="Added Server:"
AddedCurrentHead="Добавлен сервер:"
; EN: AddedCurrentTail="To Favorites!"
AddedCurrentTail="В избранное!"
; EN: ServerFullMsg="Server is now full"
ServerFullMsg="Сервер теперь заполнен"
; EN: SMStateName[0]="Speech Menu"
SMStateName[0]="Речевое меню"
; EN: SMStateName[1]="Voice Chat"
SMStateName[1]="Голосовой чат"
; EN: SMStateName[2]="Acknowledge"
SMStateName[2]="Сознавать"
; EN: SMStateName[3]="Friendly Fire"
SMStateName[3]="Огонь по своим"
; EN: SMStateName[4]="Order"
SMStateName[4]="порядок"
; EN: SMStateName[5]="Other"
SMStateName[5]="Другой"
; EN: SMStateName[6]="Taunt"
SMStateName[6]="Насмешка"
; EN: SMStateName[7]="Taunt Anim"
SMStateName[7]="Насмешка Аним"
; EN: SMStateName[8]="Player Select"
SMStateName[8]="Выбор игрока"
; EN: SMChannelOptions[0]="Join"
SMChannelOptions[0]="Присоединиться"
; EN: SMChannelOptions[1]="Leave"
SMChannelOptions[1]="Оставлять"
; EN: SMChannelOptions[2]="Talk"
SMChannelOptions[2]="Разговаривать"
; EN: SMAllString="[ALL]"
SMAllString="[ВСЕ]"
; EN: SMMoreString="[MORE]"
SMMoreString="[БОЛЕЕ]"

[GUIController]
; EN: DesignModeHints=((Key=" Key",Description="                                Description"),(Key=" (F1)",Description="                                View this help screen"),(Key=" Ctrl + Alt + D",Description="                      Toggles design mode"),(Key=" Ctrl + Alt + E",Description="                      Toggles property editor mode"),(Key=" [Ctrl +] H",Description="                          Toggles active/focused info"),(Key=" [Ctrl +] I",Description="                          Toggle interactive mode"),(Key=" [Ctrl +] P",Description="                          Toggles full MenuOwner chains for active/focused"),(Key=" [Ctrl +] C",Description="                          Copy MoveControl position to clipboard"),(Key=" [Ctrl +] X",Description="                          Export MoveControl to clipboard"),(Key=" [Ctrl +] U",Description="                          Refresh the property window in the designer"),(Key=" [Ctrl +] Up/Down/Left/Right",Description="         Reposition MoveControl using arrow keys"),(Key=" [Ctrl +] +/-",Description="                        Resize MoveControl vertically"),(Key=" [Ctrl +] Num+/Num-",Description="                  Resize selected component horizontally"),(Key=" [Ctrl +] WheelUp",Description="                    Set MoveControl to MoveControl's menuowner"),(Key=" [Ctrl +] WheenDown",Description="                  Set MoveControl to MoveControl's focused control"),(Key=" [(Ctrl + Alt) +] MouseX/Y+LMouse",Description="    Reposition MoveControl using mouse"),(Key=" (Shift)",Description="                             Hides all design mode indicators"),(Key=" (Ctrl + Alt)",Description="                        View focus chain"),(Key=" [Ctrl +] Tab",Description="                        Select new MoveControl"),(Key=" [Ctrl +] LMouse",Description="                     Select new MoveControl"))
DesignModeHints=((Key=" Ключ",Description="                                Описание"),(Key=" (F1)",Description="                                Просмотреть этот экран справки"),(Key=" Ctrl + Alt + D",Description="                      Переключает режим дизайна"),(Key=" Ctrl + Alt + E",Description="                      Переключает режим редактора свойств"),(Key=" [Ctrl +] H",Description="                          Переключает активную / сфокусированную информацию"),(Key=" [Ctrl +] I",Description="                          Переключить интерактивный режим"),(Key=" [Ctrl +] P",Description="                          Переключает полные цепочки MenuOwner для активных / сфокусированных"),(Key=" [Ctrl +] C",Description="                          Копировать позицию MoveControl в буфер обмена"),(Key=" [Ctrl +] X",Description="                          Экспорт MoveControl в буфер обмена"),(Key=" [Ctrl +] U",Description="                          Обновите окно свойств в дизайнере"),(Key=" [Ctrl +] Вверх / Вниз / Влево / Вправо",Description="         Переместите MoveControl с помощью клавиш со стрелками"),(Key=" [Ctrl +] +/-",Description="                        Изменить размер MoveControl по вертикали"),(Key=" [Ctrl +] Num + / Num-",Description="                  Изменить размер выбранного компонента по горизонтали"),(Key=" [Ctrl +] WheelUp",Description="                    Установите для MoveControl значение Menuowner для MoveControl"),(Key=" [Ctrl +] WheenDown",Description="                  Установите для MoveControl значение сфокусированного элемента управления MoveControl"),(Key=" [(Ctrl + Alt) +] MouseX / Y + LМышь",Description="    Перемещение MoveControl с помощью мыши"),(Key=" (Сдвиг)",Description="                             Скрывает все индикаторы режима разработки"),(Key=" (Ctrl + Alt)",Description="                        Просмотр цепочки фокуса"),(Key=" [Ctrl +] Tab",Description="                        Выберите новый MoveControl"),(Key=" [Ctrl +] LМышь",Description="                     Выберите новый MoveControl"))

[GUIQuestionPage]
ButtonNames=("Ok","Cancel","Retry","Continue","Yes","No","Abort","Ignore")

[HudBTeamDeathMatch]
; EN: LinkEstablishedMessage="LINK ESTABLISHED"
LinkEstablishedMessage="ССЫЛКА УСТАНОВЛЕНА"

[HudBase]
InstructionFontName="UT2003Fonts.jFontMono800x600"
; EN: LevelActionLoading="LOADING..."
LevelActionLoading="ЗАГРУЗКА ..."
; EN: LevelActionPaused="PAUSED"
LevelActionPaused="ПРИОСТАНОВЛЕН"
LevelActionFontName="UT2003Fonts.FontMedium"
; EN: WonMatchPostFix=" won the match!"
WonMatchPostFix=" выиграл матч!"
; EN: WaitingToSpawn="Press [Fire] to join the match!"
WaitingToSpawn="Нажмите [Fire], чтобы присоединиться к матчу!"
; EN: AtMenus="Press [ESC] to close menu"
AtMenus="Нажмите [ESC], чтобы закрыть меню."
; EN: YouveWonTheMatch="You've won the match!"
YouveWonTheMatch="Вы выиграли матч!"
; EN: YouveLostTheMatch="You've lost the match."
YouveLostTheMatch="Вы проиграли матч."
; EN: NowViewing="Now viewing"
NowViewing="Сейчас просматриваю"
; EN: ScoreText="Score"
ScoreText="Счет"
; EN: InitialViewingString="Press Fire to View a different Player"
InitialViewingString="Нажмите Fire, чтобы просмотреть другого игрока"
ProgressFontName="UT2003Fonts.FontMedium"
FontArrayNames[0]="UT2003Fonts.FontEurostile37"
FontArrayNames[1]="UT2003Fonts.FontEurostile29"
FontArrayNames[2]="UT2003Fonts.FontEurostile24"
FontArrayNames[3]="UT2003Fonts.FontEurostile21"
FontArrayNames[4]="UT2003Fonts.FontEurostile17"
FontArrayNames[5]="UT2003Fonts.FontEurostile14"
FontArrayNames[6]="UT2003Fonts.FontEurostile12"
FontArrayNames[7]="UT2003Fonts.FontEurostile9"
FontArrayNames[8]="UT2003Fonts.FontSmallText"

[HudCTeamDeathMatch]
; EN: LinkEstablishedMessage="LINK ESTABLISHED"
LinkEstablishedMessage="ССЫЛКА УСТАНОВЛЕНА"

[IRCLink]
; EN: InvalidAddressText="Invalid server address, aborting."
InvalidAddressText="Недействительный адрес сервера, прерывание."
; EN: ErrorBindingText="Error binding local port, aborting."
ErrorBindingText="Ошибка привязки локального порта, прерывание."
; EN: ResolveFailedText="Failed to resolve server address, aborting."
ResolveFailedText="Не удалось определить адрес сервера, прерывание."
; EN: ConnectedText="Connected."
ConnectedText="Связаны."
; EN: ConnectingToText="Connecting to"
ConnectingToText="Присоединенный к"
; EN: TimeOutError="Timeout connecting to server."
TimeOutError="Тайм-аут подключения к серверу."
; EN: InviteString="invites you to join"
InviteString="приглашает вас присоединиться"
; EN: NickInUseText="Nickname Already In Use"
NickInUseText="Псевдоним уже используется"
; EN: NickInvalidText="Nickname Is Invalid"
NickInvalidText="Никнейм недействителен"

[IRC_NewNick]
; EN: NewNickEntry.Caption="New Nickname: "
NewNickEntry.Caption="Новый ник: "
; EN: OkButton.Caption="OK"
OkButton.Caption="Ok"

[IRC_Page]
; EN: HasLeftText="has left"
HasLeftText="оставил"
; EN: HasJoinedText="has joined"
HasJoinedText="присоединился"
; EN: WasKickedByText="was kicked by"
WasKickedByText="был выгнан"
; EN: NowKnownAsText="is now known as"
NowKnownAsText="теперь известен как"
; EN: QuitText="Quit"
QuitText="Покидать"
; EN: SetsModeText="sets mode"
SetsModeText="устанавливает режим"
; EN: NewTopicText="Topic"
NewTopicText="Тема"

[IRC_System]
; EN: NotInAChannelText="Not in a channel!"
NotInAChannelText="Не в канале!"
; EN: KickedFromText="You were kicked from"
KickedFromText="Вас выгнали из"
; EN: ByText="by"
ByText="к"
; EN: IsAwayText="is away"
IsAwayText="вдали"
; EN: ConnectText="CONNECT"
ConnectText="СОЕДИНЯТЬ"
; EN: DisconnectText="DISCONNECT"
DisconnectText="ОТКЛЮЧИТЬ"
; EN: MyChannelLabel.Caption="Channel"
MyChannelLabel.Caption="Канал"
; EN: MyJoinChannelButton.Caption="JOIN CHANNEL"
MyJoinChannelButton.Caption="ПРИСОЕДИНЯЙТЕСЬ К КАНАЛУ"
; EN: MyRemoveChannelButton.Caption="REMOVE CHANNEL"
MyRemoveChannelButton.Caption="УДАЛИТЬ КАНАЛ"
; EN: MyRemoveServerButton.Caption="REMOVE SERVER"
MyRemoveServerButton.Caption="УДАЛИТЬ СЕРВЕР"
; EN: MyServerLabel.Caption="Server"
MyServerLabel.Caption="Сервер"

[JoeTest]
; EN: TestButton1.Caption="Close Window"
TestButton1.Caption="Закрой окно"
; EN: TitleText.Caption="Joe's Amazing Test GUI"
TitleText.Caption="Удивительный тестовый графический интерфейс Джо"

[JoeTestPanelA]
; EN: TestButtonA.Caption="Wow"
TestButtonA.Caption="Вот это да"
; EN: TestButtonB.Caption="Damn"
TestButtonB.Caption="Проклятие"

[ScoreBoardDeathMatch]
; EN: RankText="RANK"
RankText="КЛАССИФИЦИРОВАТЬ"
; EN: PlayerText="PLAYER"
PlayerText="ИГРОК"
; EN: PointsText="SCORE"
PointsText="СЧЕТ"
; EN: TimeText="TIME:"
TimeText="ВРЕМЯ:"
; EN: PingText="PING:"
PingText="ПИНГ:"
; EN: PLText="P/L:"
PLText="P / L:"
; EN: DeathsText="DEATHS"
DeathsText="ЛЕТАЛЬНЫЕ ИСХОДЫ"
; EN: AdminText="ADMIN"
AdminText="АДМИНИСТРАТОР"
; EN: NetText="NET"
NetText="СЕТЬ"
; EN: FooterText="Elapsed Time:"
FooterText="Пройденное время:"
MatchIDText="UT2004 Stats Match ID"
; EN: OutText="OUT"
OutText="ИЗ"
; EN: OutFireText="   You are OUT. Fire to view other players."
OutFireText="   Ты вне игры. Огонь для просмотра других игроков."
; EN: ReadyText="READY"
ReadyText="ГОТОВ"
; EN: NotReadyText="NOT RDY"
NotReadyText="НЕ ГОТОВ"
; EN: SkillLevel[0]="NOVICE"
SkillLevel[0]="НОВИЦА"
; EN: SkillLevel[1]="AVERAGE"
SkillLevel[1]="В СРЕДНЕМ"
; EN: SkillLevel[2]="EXPERIENCED"
SkillLevel[2]="ОПЫТ"
; EN: SkillLevel[3]="SKILLED"
SkillLevel[3]="КВАЛИФИЦИРОВАННЫЕ"
; EN: SkillLevel[4]="ADEPT"
SkillLevel[4]="ПРИНЯТЬ"
; EN: SkillLevel[5]="MASTERFUL"
SkillLevel[5]="ШИКАРНЫЙ"
; EN: SkillLevel[6]="INHUMAN"
SkillLevel[6]="БЕЗЧЕЛОВЕЧЕСКИЙ"
; EN: SkillLevel[7]="GODLIKE"
SkillLevel[7]="БОЖЕСТВЕННЫЙ"
; EN: MaxLives="MAX LIVES:"
MaxLives="МАКСИМАЛЬНАЯ ЖИЗНЬ:"
; EN: FragLimit="FRAG LIMIT:"
FragLimit="ПРЕДЕЛ ФРАГА:"
FPH="PPH"
; EN: GameType="GAME"
GameType="ИГРА"
; EN: MapName=" in "
MapName=" в "
; EN: Restart="   You were killed. Press Fire to respawn!"
Restart="   Вы были убиты. Нажмите Огонь, чтобы возродиться!"
; EN: Continue=" Press [Fire] to continue!"
Continue=" Чтобы продолжить, нажмите [Fire]!"
; EN: Ended="The match has ended."
Ended="Матч окончен."
; EN: TimeLimit="REMAINING TIME:"
TimeLimit="ОСТАВШЕЕСЯ ВРЕМЯ:"
Spacer=" "

[ScoreBoardTeamDeathMatch]
; EN: FragLimit="SCORE LIMIT:"
FragLimit="ОГРАНИЧЕНИЕ ОЦЕНКИ:"

[ServerBrowser]
; EN: MutantTypeName="Mutant"
MutantTypeName="Мутант"
; EN: InvasionTypeName="Invasion"
InvasionTypeName="Вторжение"
; EN: LMSTypeName="Last Man Standing"
LMSTypeName="Последний герой"
MutantType="xMutantGame"
; EN: InvasionType="Invasion"
InvasionType="Вторжение"
LMSType="xLastManStanding"
; EN: MyBRServerListPage.PageCaption="Bombing Run"
MyBRServerListPage.PageCaption="Бомбардировка"
; EN: MyBuddiesPage.PageCaption="Buddies"
MyBuddiesPage.PageCaption="Приятели"
MyCTFServerListPage.PageCaption="CTF"
; EN: MyCustomServerListPage.PageCaption="Custom"
MyCustomServerListPage.PageCaption="Обычай"
MyDMServerListPage.PageCaption="DM"
; EN: MyDomServerListPage.PageCaption="Double Dom"
MyDomServerListPage.PageCaption="Двойной дом"
; EN: MyFavoritesPage.PageCaption="Favorites"
MyFavoritesPage.PageCaption="Избранное"
; EN: MyIRCPage.PageCaption="Chat"
MyIRCPage.PageCaption="Чат"
MyLANPage.PageCaption="LAN"
; EN: MyMOTDPage.PageCaption="News"
MyMOTDPage.PageCaption="Новости"
; EN: MyPrefsPage.PageCaption="Filter"
MyPrefsPage.PageCaption="Фильтр"
; EN: MyTDMServerListPage.PageCaption="Team DM"
MyTDMServerListPage.PageCaption="Команда DM"
; EN: ServerBrowserHeader.Caption="Server Browser"
ServerBrowserHeader.Caption="Браузер сервера"

[Tab_AdminPlayerList]
; EN: AdminPlayerBan.Caption="Ban"
AdminPlayerBan.Caption="Запретить"
; EN: AdminPlayerBan.Hint="Ban this player"
AdminPlayerBan.Hint="Забанить этого игрока"
; EN: AdminPlayerKick.Caption="Kick"
AdminPlayerKick.Caption="Пинать"
; EN: AdminPlayerKick.Hint="Kick this Player"
AdminPlayerKick.Hint="Убей этого игрока"

[Tab_AudioSettings]
; EN: AudioModes[0]="Software 3D Audio"
AudioModes[0]="Программное обеспечение 3D Audio"
; EN: AudioModes[1]="Hardware 3D Audio"
AudioModes[1]="Аппаратное 3D аудио"
; EN: AudioModes[2]="Hardware 3D Audio + EAX"
AudioModes[2]="Аппаратное 3D аудио + EAX"
; EN: AudioModes[3]="Safe Mode"
AudioModes[3]="Безопасный режим"
; EN: VoiceModes[0]="All"
VoiceModes[0]="Все"
; EN: VoiceModes[1]="No auto-taunts"
VoiceModes[1]="Никаких авто-насмешек"
; EN: VoiceModes[2]="No taunts"
VoiceModes[2]="Без насмешек"
; EN: VoiceModes[3]="None"
VoiceModes[3]="Никто"
; EN: AnnounceModes[0]="None"
AnnounceModes[0]="Никто"
; EN: AnnounceModes[1]="Minimal"
AnnounceModes[1]="Минимальный"
; EN: AnnounceModes[2]="All"
AnnounceModes[2]="Все"
; EN: AudioAnnounce.Caption="Announcements"
AudioAnnounce.Caption="Анонсы"
; EN: AudioAnnounce.Hint="Adjusts the amount of in-game announcements."
AudioAnnounce.Hint="Регулирует количество объявлений в игре."
; EN: AudioAnnouncerPack.Caption="Announcer Voice"
AudioAnnouncerPack.Caption="Голос диктора"
; EN: AudioAnnouncerPack.Hint="Select the Announcer for tonight's game."
AudioAnnouncerPack.Hint="Выберите комментатора сегодняшней игры."
; EN: AudioAutoTaunt.Caption="Auto-Taunt"
AudioAutoTaunt.Caption="Авто-насмешка"
; EN: AudioAutoTaunt.Hint="Enables your in-game player to automatically taunt opponents."
AudioAutoTaunt.Hint="Позволяет вашему внутриигровому игроку автоматически насмехаться над противниками."
; EN: AudioEffectsVolumeLabel.Caption="Effects Volume"
AudioEffectsVolumeLabel.Caption="Громкость эффектов"
; EN: AudioEffectsVolumeSlider.Hint="Changes the volume of all in game sound effects."
AudioEffectsVolumeSlider.Hint="Изменяет громкость всех звуковых эффектов в игре."
; EN: AudioLowDetail.Caption="Low Sound Detail"
AudioLowDetail.Caption="Низкая детализация звука"
; EN: AudioLowDetail.Hint="Lowers quality of sound."
AudioLowDetail.Hint="Снижает качество звука."
; EN: AudioMatureTaunts.Caption="Mature Taunts"
AudioMatureTaunts.Caption="Зрелые насмешки"
; EN: AudioMatureTaunts.Hint="Enables off-color commentary."
AudioMatureTaunts.Hint="Включает нецветные комментарии."
; EN: AudioMessageBeep.Caption="Message Beep"
AudioMessageBeep.Caption="Сообщение Beep"
; EN: AudioMessageBeep.Hint="Enables a beep when receiving a text message from other players."
AudioMessageBeep.Hint="Включает звуковой сигнал при получении текстового сообщения от других игроков."
; EN: AudioMode.Caption="Audio Mode"
AudioMode.Caption="Аудио режим"
; EN: AudioMode.Hint="Changes the audio system mode."
AudioMode.Hint="Изменяет режим аудиосистемы."
; EN: AudioMusicVolumeLabel.Caption="Music Volume"
AudioMusicVolumeLabel.Caption="Громкость музыки"
; EN: AudioMusicVolumeSlider.Hint="Changes the volume of the background music."
AudioMusicVolumeSlider.Hint="Изменяет громкость фоновой музыки."
; EN: AudioPlayVoices.Caption="Play Voices"
AudioPlayVoices.Caption="Воспроизвести голоса"
; EN: AudioPlayVoices.Hint="Defines the types of voice messages to play."
AudioPlayVoices.Hint="Определяет типы голосовых сообщений для воспроизведения."
; EN: AudioReverseStereo.Caption="Reverse Stereo"
AudioReverseStereo.Caption="Обратное стерео"
; EN: AudioReverseStereo.Hint="Reverses the left and right audio channels."
AudioReverseStereo.Hint="Меняет местами левый и правый аудиоканалы."
; EN: AudioVoiceVolumeLabel.Caption="Announcer Volume"
AudioVoiceVolumeLabel.Caption="Диктор Объем"
; EN: AudioVoiceVolumeSlider.Hint="Changes the volume of all in game voice messages."
AudioVoiceVolumeSlider.Hint="Изменяет громкость всех голосовых сообщений в игре."

[Tab_ControlSettings]
; EN: Bindings=((KeyLabel="Movement"),(KeyLabel="Forward"),(KeyLabel="Backward"),(KeyLabel="Strafe Left"),(KeyLabel="Strafe Right"),(KeyLabel="Jump"),(KeyLabel="Walk"),(KeyLabel="Crouch"),(KeyLabel="Strafe Toggle"),(KeyLabel="Looking"),(KeyLabel="Turn Left"),(KeyLabel="Turn Right"),(KeyLabel="Look Up"),(KeyLabel="Look Down"),(KeyLabel="Center View"),(KeyLabel="Weapons"),(KeyLabel="Fire"),(KeyLabel="Alt-Fire"),(KeyLabel="Throw Weapon"),(KeyLabel="Best Weapon"),(KeyLabel="Next Weapon"),(KeyLabel="Prev Weapon"),(KeyLabel="Last Weapon"),(KeyLabel="Weapon Selection"),(KeyLabel="Super Weapon"),(KeyLabel="Shield Gun"),(KeyLabel="Assault Rifle"),(KeyLabel="Bio-Rifle"),(KeyLabel="Shock Rifle"),(KeyLabel="Link Gun"),(KeyLabel="Minigun"),(KeyLabel="Flak Cannon"),(KeyLabel="Rocket Launcher"),(KeyLabel="Lightning Rifle"),(KeyLabel="Translocator"),(KeyLabel="Communication"),(KeyLabel="Say"),(KeyLabel="Team Say"),(KeyLabel="Speech Menu"),(KeyLabel="Taunts"),(KeyLabel="Pelvic Thrust"),(KeyLabel="Ass Smack"),(KeyLabel="Throat Cut"),(KeyLabel="Hud"),(KeyLabel="Grow Hud"),(KeyLabel="Shrink Hud"),(KeyLabel="Miscellaneous"),(KeyLabel="Pause"),(KeyLabel="Screenshot"),(KeyLabel="Menu"),(KeyLabel="ScoreBoard"),(KeyLabel="ScoreBoard Toggle"),(KeyLabel="In Game Chat"),(KeyLabel="Server Info"))
Bindings=((KeyLabel="Движение"),(KeyLabel="Вперед"),(KeyLabel="Назад"),(KeyLabel="Strafe Left"),(KeyLabel="Strafe Right"),(KeyLabel="Прыжок"),(KeyLabel="Ходить"),(KeyLabel="Крауч"),(KeyLabel="Strafe Toggle"),(KeyLabel="Смотрящий"),(KeyLabel="Поверните налево"),(KeyLabel="Поверните направо"),(KeyLabel="Погляди"),(KeyLabel="Смотреть вниз"),(KeyLabel="Центральный вид"),(KeyLabel="Оружие"),(KeyLabel="Огонь"),(KeyLabel="Альтернативный огонь"),(KeyLabel="Бросить оружие"),(KeyLabel="Лучшее оружие"),(KeyLabel="Следующее оружие"),(KeyLabel="Предыдущее оружие"),(KeyLabel="Последнее оружие"),(KeyLabel="Выбор оружия"),(KeyLabel="Супер оружие"),(KeyLabel="Щитовой пистолет"),(KeyLabel="Штурмовая винтовка"),(KeyLabel="Био-винтовка"),(KeyLabel="Ударная винтовка"),(KeyLabel="Link Gun"),(KeyLabel="Миниган"),(KeyLabel="Зенитная пушка"),(KeyLabel="Ракетная пусковая установка"),(KeyLabel="Молния Винтовка"),(KeyLabel="Транслокатор"),(KeyLabel="Коммуникация"),(KeyLabel="Сказать"),(KeyLabel="Команда Say"),(KeyLabel="Речевое меню"),(KeyLabel="Насмешки"),(KeyLabel="Тазовая тяга"),(KeyLabel="Задница шлепок"),(KeyLabel="Горло разрез"),(KeyLabel="Hud"),(KeyLabel="Grow Hud"),(KeyLabel="Сжать Hud"),(KeyLabel="Разное"),(KeyLabel="Пауза"),(KeyLabel="Скриншот"),(KeyLabel="Меню"),(KeyLabel="Табло"),(KeyLabel="ScoreBoard Toggle"),(KeyLabel="В игровом чате"),(KeyLabel="Информация о сервере"))
Labels=("Movement","Forward","Backward","Strafe Left","Strafe Right","Jump","Walk","Crouch","Strafe Toggle","Looking","Turn Left","Turn Right","Look Up","Look Down","Center View","Weapons","Fire","Alt-Fire","Throw Weapon","Best Weapon","Next Weapon","Prev Weapon","Last Weapon","Weapon Selection","Super Weapon","Shield Gun","Assault Rifle","Bio-Rifle","Shock Rifle","Link Gun","Minigun","Flak Cannon","Rocket Launcher","Lightning Rifle","Translocator","Communication","Say","Team Say","Speech Menu","Taunts","Pelvic Thrust","Ass Smack","Throat Cut","Hud","Grow Hud","Shrink Hud","Miscellaneous","Pause","Screenshot","Menu","ScoreBoard","ScoreBoard Toggle","In Game Chat","Server Info")
Header="["
; EN: Footer="] Perform this action "
Footer="] Выполнить это действие "
; EN: KeyConfigAliasLabel.Caption="Action"
KeyConfigAliasLabel.Caption="Действие"
; EN: KeyConfigAliasLabel2.Caption="Key 1"
KeyConfigAliasLabel2.Caption="Ключ 1"
; EN: KeyConfigAliasLabel3.Caption="Key 2"
KeyConfigAliasLabel3.Caption="Ключ 2"
; EN: KeyConfigKeyList.Hint="Select Control to config"
KeyConfigKeyList.Hint="Выберите Control для настройки"
; EN: KeyResetButton.Caption="RESET"
KeyResetButton.Caption="СБРОС НАСТРОЕК"
; EN: KeyResetButton.Hint="Reset keys to default values"
KeyResetButton.Hint="Сбросить ключи до значений по умолчанию"

[Tab_DetailSettings]
; EN: DetailLevels[0]="Lowest"
DetailLevels[0]="Самый низкий"
; EN: DetailLevels[1]="Lower"
DetailLevels[1]="Ниже"
; EN: DetailLevels[2]="Low"
DetailLevels[2]="Низкий"
; EN: DetailLevels[3]="Normal"
DetailLevels[3]="Обычный"
; EN: DetailLevels[4]="High"
DetailLevels[4]="Высокий"
; EN: DetailLevels[5]="Higher"
DetailLevels[5]="Выше"
; EN: DetailLevels[6]="Highest"
DetailLevels[6]="Самый высокий"
; EN: DetailActorDetail.Caption="World Detail"
DetailActorDetail.Caption="Детали мира"
; EN: DetailActorDetail.Hint="Changes the level of detail used for optional geometry and effects."