[AdminPlayerList]
ColumnHeadings=("Player Name","Unique ID","IP")

[Browser_AddBuddy]
; EN: AddBuddyDesc.Caption="Add Buddy"
AddBuddyDesc.Caption="Přidejte Buddyho"
; EN: BuddyEntryBox.Caption="Buddy Name: "
BuddyEntryBox.Caption="Jméno kamaráda: "
; EN: CancelButton.Caption="CANCEL"
CancelButton.Caption="ZRUŠENÍ"
OkButton.Caption="OK"

[Browser_BuddyList]
ColumnHeadings=("Buddy Name")

[Browser_IRC]
; EN: SystemLabel="System"
SystemLabel="Systém"
; EN: LeaveChannelCaption="LEAVE CHANNEL"
LeaveChannelCaption="OPUSTIT KANÁL"
; EN: LeavePrivateCaptionHead="CLOSE "
LeavePrivateCaptionHead="ZAVŘÍT "
; EN: ChooseNewNickText="Choose A New Chat Nickname"
ChooseNewNickText="Vyberte Nová přezdívka chatu"
; EN: MyBackButton.Caption="BACK"
MyBackButton.Caption="ZADNÍ"
; EN: MyChangeNickButton.Caption="CHANGE NICK"
MyChangeNickButton.Caption="ZMĚNIT NICK"

[Browser_IconKey]
; EN: DialogText.Caption="Server Icon Key"
DialogText.Caption="Klíč ikony serveru"
OkButton.Caption="OK"

[Browser_MOTD]
VersionString="Ver."
; EN: MyBackButton.Caption="BACK"
MyBackButton.Caption="ZADNÍ"
; EN: MyRefreshButton.Caption="REFRESH"
MyRefreshButton.Caption="OBNOVIT"
; EN: MyUpgradeButton.Caption="UPGRADE"
MyUpgradeButton.Caption="VYLEPŠIT"

[Browser_OpenIP]
; EN: CancelButton.Caption="CANCEL"
CancelButton.Caption="ZRUŠENÍ"
; EN: IpEntryBox.Caption="IP Address: "
IpEntryBox.Caption="IP adresa: "
OkButton.Caption="OK"
; EN: OpenIPDesc.Caption="Enter New IP Address"
OpenIPDesc.Caption="Zadejte novou IP adresu"

[Browser_Page]
; EN: StartQueryString="Querying Master Server"
StartQueryString="Dotazování hlavního serveru"
; EN: AuthFailString="Authentication Failed"
AuthFailString="Ověření se nezdařilo"
; EN: ConnFailString="Connection Failed - Retrying"
ConnFailString="Připojení se nezdařilo – opakování pokusu"
; EN: ConnTimeoutString="Connection Timed Out"
ConnTimeoutString="Připojení vypršelo"
; EN: QueryCompleteString="Query Complete!"
QueryCompleteString="Dotaz dokončen!"
; EN: RefreshCompleteString="Refresh Complete!"
RefreshCompleteString="Obnovení dokončeno!"
; EN: ReadyString="Ready"
ReadyString="Připraveno"

[Browser_PlayersList]
ColumnHeadings=("Player Name","Score","Stats ID","Ping")

[Browser_Prefs]
; EN: ViewStatsStrings[0]="Any Servers"
ViewStatsStrings[0]="Jakékoli servery"
; EN: ViewStatsStrings[1]="Only Stats Servers"
ViewStatsStrings[1]="Pouze statistické servery"
; EN: ViewStatsStrings[2]="No Stats Servers"
ViewStatsStrings[2]="Žádné statistické servery"
; EN: MutatorModeStrings[0]="Any Mutators"
MutatorModeStrings[0]="Všichni mutátoři"
; EN: MutatorModeStrings[1]="No Mutators"
MutatorModeStrings[1]="Žádní mutátoři"
; EN: MutatorModeStrings[2]="This Mutator"
MutatorModeStrings[2]="Tento mutátor"
; EN: MutatorModeStrings[3]="Not This Mutator"
MutatorModeStrings[3]="Ne tento mutátor"
; EN: WeaponStayStrings[0]="Any Servers"
WeaponStayStrings[0]="Jakékoli servery"
; EN: WeaponStayStrings[1]="Only Weapon Stay Servers"
WeaponStayStrings[1]="Pouze servery pro pobyt zbraní"
; EN: WeaponStayStrings[2]="No Weapon Stay Servers"
WeaponStayStrings[2]="Servery bez pobytu zbraní"
; EN: TranslocatorStrings[0]="Any Servers"
TranslocatorStrings[0]="Jakékoli servery"
; EN: TranslocatorStrings[1]="Only Translocator Servers"
TranslocatorStrings[1]="Pouze servery Translocator"
; EN: TranslocatorStrings[2]="No Translocator Servers"
TranslocatorStrings[2]="Žádné translokační servery"
; EN: CustomQuery.Caption="Custom Query"
CustomQuery.Caption="Vlastní dotaz"
; EN: FilterTitle.Caption="Server Filtering Options:"
FilterTitle.Caption="Možnosti filtrování serveru:"
MaxGamespeed.Caption="Max"
; EN: MinGamespeed.Caption="Game Speed Min"
MinGamespeed.Caption="Rychlost hry min"
; EN: MutatorModeCombo.Caption="Mutators"
MutatorModeCombo.Caption="Mutátoři"
; EN: MyBackButton.Caption="BACK"
MyBackButton.Caption="ZADNÍ"
; EN: MyKeyButton.Caption="ICON KEY"
MyKeyButton.Caption="IKONOVÝ KLÍČ"
; EN: NoBotServersCheckBox.Caption="No Servers With Bots"
NoBotServersCheckBox.Caption="Žádné servery s roboty"
; EN: NoEmptyCheckBox.Caption="No Empty Servers"
NoEmptyCheckBox.Caption="Žádné prázdné servery"
; EN: NoFullCheckBox.Caption="No Full Servers"
NoFullCheckBox.Caption="Žádné úplné servery"
; EN: NoPasswdCheckBox.Caption="No Passworded Servers"
NoPasswdCheckBox.Caption="Žádné zaheslované servery"
; EN: OnlyStandardCheckBox.Caption="Only Standard Servers"
OnlyStandardCheckBox.Caption="Pouze standardní servery"
; EN: StatsViewCombo.Caption="Stats Servers"
StatsViewCombo.Caption="Statistické servery"
; EN: TranslocatorCombo.Caption="Translocator"
TranslocatorCombo.Caption="Translokátor"
WeaponStayCombo.Caption="WeaponStay"

[Browser_RulesList]
; EN: TrueString="Enabled"
TrueString="Povoleno"
; EN: FalseString="Disabled"
FalseString="Zakázáno"
; EN: ServerModeString="Server Mode"
ServerModeString="Režim serveru"
; EN: DedicatedString="Dedicated"
DedicatedString="Věnováno"
; EN: NonDedicatedString="Non-Dedicated"
NonDedicatedString="Nevyhrazené"
; EN: AdminNameString="Server Admin"
AdminNameString="Správce serveru"
; EN: AdminEmailString="Admin Email"
AdminEmailString="E-mail správce"
; EN: PasswordString="Requires Password"
PasswordString="Vyžaduje heslo"
; EN: GameStatsString="UT2004 Stats"
GameStatsString="Statistiky UT2004"
; EN: GameSpeedString="Game Speed"
GameSpeedString="Rychlost hry"
; EN: MutatorString="Mutator"
MutatorString="Mutátor"
; EN: BalanceTeamsString="Bots Balance Teams"
BalanceTeamsString="Týmy pro vyvážení robotů"
; EN: PlayersBalanceTeamsString="Balance Teams"
PlayersBalanceTeamsString="Balanční týmy"
; EN: FriendlyFireString="Friendly Fire"
FriendlyFireString="Přátelský oheň"
; EN: GoalScoreString="Goal Score"
GoalScoreString="Skóre gólu"
; EN: TimeLimitString="Time Limit"
TimeLimitString="Lhůta"
; EN: MinPlayersString="Minimum Players (bots)"
MinPlayersString="Minimální počet hráčů (boti)"
; EN: TranslocatorString="Translocator"
TranslocatorString="Translokátor"
; EN: WeaponStayString="Weapons Stay"
WeaponStayString="Zbraně zůstat"
ColumnHeadings=("Setting","Value")

[Browser_ServerListPageBase]
; EN: AddFavoriteButton.Caption="ADD FAVORITE"
AddFavoriteButton.Caption="PŘIDAT OBLÍBENÉ"
; EN: BackButton.Caption="BACK"
BackButton.Caption="ZADNÍ"
; EN: JoinButton.Caption="JOIN"
JoinButton.Caption="PŘIPOJIT"
; EN: RefreshButton.Caption="REFRESH LIST"
RefreshButton.Caption="OBNOVIT SEZNAM"
; EN: SpectateButton.Caption="SPECTATE"
SpectateButton.Caption="POZOROVAT"

[Browser_ServerListPageBuddy]
; EN: AddBuddyCaption="ADD BUDDY"
AddBuddyCaption="PŘIDEJTE KAMARÁŘE"
; EN: RemoveBuddyCaption="REMOVE BUDDY"
RemoveBuddyCaption="ODSTRANIT PŘÁtele"

[Browser_ServerListPageFavorites]
; EN: RemoveFavoriteCaption="REMOVE FAVORITE"
RemoveFavoriteCaption="ODSTRANIT OBLÍBENÉ"
; EN: AddIPCaption="ADD IP"
AddIPCaption="PŘIDAT IP"
; EN: RePingCaption="RE-PING LIST"
RePingCaption="RE-PING SEZNAM"

[Browser_ServerListPageMS]
; EN: QueryFinHead="Query Complete! Received: "
QueryFinHead="Dotaz dokončen! Přijato: "
; EN: QueryFinTail=" Servers"
QueryFinTail=" servery"
; EN: PingRecvString="Pinging Servers"
PingRecvString="Pingové servery"
; EN: MustUpgradeString="Upgrade available. Please refresh the News page."
MustUpgradeString="Upgrade k dispozici. Obnovte prosím stránku Novinky."
; EN: RefreshFinHead="Pinging Complete! "
RefreshFinHead="Ping dokončen! "
; EN: RefreshFinMid=" Servers, "
RefreshFinMid=" servery, "
; EN: RefreshFinTail=" Players"
RefreshFinTail=" Hráči"
; EN: RePingServersCaption="RE-PING LIST"
RePingServersCaption="RE-PING SEZNAM"
; EN: RefreshCaption="REFRESH LIST"
RefreshCaption="OBNOVIT SEZNAM"

[Browser_ServerListPageMSCustom]
; EN: MyGameTypeLabel.Caption="Game Type"
MyGameTypeLabel.Caption="Druh hry"

[Browser_ServersList]
IconDescriptions=("Passworded","Stats Enabled","Latest Version","Listen Server","Instagib","Standard Server","UT Classic")
ColumnHeadings=(,"Server Name","Map","Players","Ping")

[DefaultCrosshairs]
; EN: Crosshair=((FriendlyName="Cross (1)"),(FriendlyName="Cross (2)"),(FriendlyName="Cross (3)"),(FriendlyName="Cross (4)"),(FriendlyName="Cross (5)"),(FriendlyName="Dot"),(FriendlyName="Pointer"),(FriendlyName="Triad (1)"),(FriendlyName="Triad (2)"),(FriendlyName="Triad (3)"),(FriendlyName="Bracket (1)"),(FriendlyName="Bracket (2)"),(FriendlyName="Circle (1)"),(FriendlyName="Circle (2)"))
Crosshair=((FriendlyName="Kříž (1)"),(FriendlyName="Kříž (2)"),(FriendlyName="Kříž (3)"),(FriendlyName="Kříž (4)"),(FriendlyName="Kříž (5)"),(FriendlyName="Tečka"),(FriendlyName="Ukazatel"),(FriendlyName="triáda (1)"),(FriendlyName="triáda (2)"),(FriendlyName="triáda (3)"),(FriendlyName="držák (1)"),(FriendlyName="držák (2)"),(FriendlyName="Kruh (1)"),(FriendlyName="Kruh (2)"))

[ExtendedConsole]
; EN: AddedCurrentHead="Added Server:"
AddedCurrentHead="Přidaný server:"
; EN: AddedCurrentTail="To Favorites!"
AddedCurrentTail="K oblíbeným!"
; EN: ServerFullMsg="Server is now full"
ServerFullMsg="Server je nyní plný"
; EN: SMStateName[0]="Speech Menu"
SMStateName[0]="Nabídka řeči"
; EN: SMStateName[1]="Voice Chat"
SMStateName[1]="Hlasový chat"
; EN: SMStateName[2]="Acknowledge"
SMStateName[2]="Potvrdit"
; EN: SMStateName[3]="Friendly Fire"
SMStateName[3]="Přátelský oheň"
; EN: SMStateName[4]="Order"
SMStateName[4]="Objednat"
; EN: SMStateName[5]="Other"
SMStateName[5]="jiný"
; EN: SMStateName[6]="Taunt"
SMStateName[6]="Posměch"
SMStateName[7]="Taunt Anim"
; EN: SMStateName[8]="Player Select"
SMStateName[8]="Výběr přehrávače"
; EN: SMChannelOptions[0]="Join"
SMChannelOptions[0]="Připojit"
; EN: SMChannelOptions[1]="Leave"
SMChannelOptions[1]="Odejít"
; EN: SMChannelOptions[2]="Talk"
SMChannelOptions[2]="Mluvit"
; EN: SMAllString="[ALL]"
SMAllString="[VŠECHNO]"
; EN: SMMoreString="[MORE]"
SMMoreString="[VÍCE]"

[GUIController]
; EN: DesignModeHints=((Key=" Key",Description="                                Description"),(Key=" (F1)",Description="                                View this help screen"),(Key=" Ctrl + Alt + D",Description="                      Toggles design mode"),(Key=" Ctrl + Alt + E",Description="                      Toggles property editor mode"),(Key=" [Ctrl +] H",Description="                          Toggles active/focused info"),(Key=" [Ctrl +] I",Description="                          Toggle interactive mode"),(Key=" [Ctrl +] P",Description="                          Toggles full MenuOwner chains for active/focused"),(Key=" [Ctrl +] C",Description="                          Copy MoveControl position to clipboard"),(Key=" [Ctrl +] X",Description="                          Export MoveControl to clipboard"),(Key=" [Ctrl +] U",Description="                          Refresh the property window in the designer"),(Key=" [Ctrl +] Up/Down/Left/Right",Description="         Reposition MoveControl using arrow keys"),(Key=" [Ctrl +] +/-",Description="                        Resize MoveControl vertically"),(Key=" [Ctrl +] Num+/Num-",Description="                  Resize selected component horizontally"),(Key=" [Ctrl +] WheelUp",Description="                    Set MoveControl to MoveControl's menuowner"),(Key=" [Ctrl +] WheenDown",Description="                  Set MoveControl to MoveControl's focused control"),(Key=" [(Ctrl + Alt) +] MouseX/Y+LMouse",Description="    Reposition MoveControl using mouse"),(Key=" (Shift)",Description="                             Hides all design mode indicators"),(Key=" (Ctrl + Alt)",Description="                        View focus chain"),(Key=" [Ctrl +] Tab",Description="                        Select new MoveControl"),(Key=" [Ctrl +] LMouse",Description="                     Select new MoveControl"))
DesignModeHints=((Key=" Klíč",Description="                                Popis"),(Key=" (F1)",Description="                                Zobrazit tuto obrazovku nápovědy"),(Key=" Ctrl + Alt + D",Description="                      Přepíná režim návrhu"),(Key=" Ctrl + Alt + E",Description="                      Přepíná režim editoru vlastností"),(Key=" [Ctrl +] H",Description="                          Přepíná aktivní/zaostřené informace"),(Key=" [Ctrl +] I",Description="                          Přepnout interaktivní režim"),(Key=" [Ctrl +] P",Description="                          Přepíná plné řetězce MenuOwner pro aktivní/zaměřené"),(Key=" [Ctrl +] C",Description="                          Zkopírujte pozici MoveControl do schránky"),(Key=" [Ctrl +] X",Description="                          Export MoveControl do schránky"),(Key=" [Ctrl +] U",Description="                          Obnovte okno vlastností v návrháři"),(Key=" [Ctrl +] Nahoru/Dolů/Vlevo/Vpravo",Description="         Přemístěte MoveControl pomocí kláves se šipkami"),(Key=" [Ctrl +] +/-",Description="                        Svisle změňte velikost MoveControl"),(Key=" [Ctrl +] Num+/Num-",Description="                  Změnit velikost vybrané součásti vodorovně"),(Key=" [Ctrl +] WheelUp",Description="                    Nastavte MoveControl na vlastníka nabídky MoveControl"),(Key=" [Ctrl +] WhienDown",Description="                  Nastavte MoveControl na zaměřený ovládací prvek MoveControl"),(Key=" [(Ctrl + Alt) +] MyšX/Y+LMyš",Description="    Přemístěte MoveControl pomocí myši"),(Key=" (Posun)",Description="                             Skryje všechny indikátory režimu návrhu"),(Key=" (Ctrl + Alt)",Description="                        Zobrazit zaostřovací řetězec"),(Key=" [Ctrl +] Tab",Description="                        Vyberte nový MoveControl"),(Key=" [Ctrl +] LMyš",Description="                     Vyberte nový MoveControl"))

[GUIQuestionPage]
ButtonNames=("Ok","Cancel","Retry","Continue","Yes","No","Abort","Ignore")

[HudBTeamDeathMatch]
; EN: LinkEstablishedMessage="LINK ESTABLISHED"
LinkEstablishedMessage="ODKAZ NASTAVEN"

[HudBase]
InstructionFontName="UT2003Fonts.jFontMono800x600"
; EN: LevelActionLoading="LOADING..."
LevelActionLoading="NAČÍTÁNÍ..."
; EN: LevelActionPaused="PAUSED"
LevelActionPaused="PAUZOVÁNO"
LevelActionFontName="UT2003Fonts.FontMedium"
; EN: WonMatchPostFix=" won the match!"
WonMatchPostFix=" vyhrál zápas!"
; EN: WaitingToSpawn="Press [Fire] to join the match!"
WaitingToSpawn="Stiskněte [Fire] a připojte se k zápasu!"
; EN: AtMenus="Press [ESC] to close menu"
AtMenus="Stisknutím [ESC] zavřete nabídku"
; EN: YouveWonTheMatch="You've won the match!"
YouveWonTheMatch="Vyhráli jste zápas!"
; EN: YouveLostTheMatch="You've lost the match."
YouveLostTheMatch="Prohráli jste zápas."
; EN: NowViewing="Now viewing"
NowViewing="Nyní prohlížení"
; EN: ScoreText="Score"
ScoreText="Skóre"
; EN: InitialViewingString="Press Fire to View a different Player"
InitialViewingString="Stiskněte Fire pro zobrazení jiného hráče"
ProgressFontName="UT2003Fonts.FontMedium"
; EN: FontArrayNames[0]="UT2003Fonts.FontEurostile37"
FontArrayNames[0]="UT2003Fonts.FontEurotile37"
; EN: FontArrayNames[1]="UT2003Fonts.FontEurostile29"
FontArrayNames[1]="UT2003Písma.FontEurostil29"
; EN: FontArrayNames[2]="UT2003Fonts.FontEurostile24"
FontArrayNames[2]="UT2003Fonts.FontEurotile24"
; EN: FontArrayNames[3]="UT2003Fonts.FontEurostile21"
FontArrayNames[3]="UT2003Písma.FontEurotile21"
; EN: FontArrayNames[4]="UT2003Fonts.FontEurostile17"
FontArrayNames[4]="UT2003Písma.FontEurostil17"
; EN: FontArrayNames[5]="UT2003Fonts.FontEurostile14"
FontArrayNames[5]="UT2003Písma.FontEurostil14"
; EN: FontArrayNames[6]="UT2003Fonts.FontEurostile12"
FontArrayNames[6]="UT2003Písma.FontEurostil12"
; EN: FontArrayNames[7]="UT2003Fonts.FontEurostile9"
FontArrayNames[7]="UT2003Písma.FontEurostil9"
FontArrayNames[8]="UT2003Fonts.FontSmallText"

[HudCTeamDeathMatch]
; EN: LinkEstablishedMessage="LINK ESTABLISHED"
LinkEstablishedMessage="ODKAZ NASTAVEN"

[IRCLink]
; EN: InvalidAddressText="Invalid server address, aborting."
InvalidAddressText="Neplatná adresa serveru, přeruší se."
; EN: ErrorBindingText="Error binding local port, aborting."
ErrorBindingText="Chyba při vázání místního portu, přeruší se."
; EN: ResolveFailedText="Failed to resolve server address, aborting."
ResolveFailedText="Nepodařilo se vyřešit adresu serveru, přerušeno."
; EN: ConnectedText="Connected."
ConnectedText="Připojeno."
; EN: ConnectingToText="Connecting to"
ConnectingToText="Připojování k"
; EN: TimeOutError="Timeout connecting to server."
TimeOutError="Časový limit pro připojení k serveru."
; EN: InviteString="invites you to join"
InviteString="vás zve, abyste se připojili"
; EN: NickInUseText="Nickname Already In Use"
NickInUseText="Přezdívka se již používá"
; EN: NickInvalidText="Nickname Is Invalid"
NickInvalidText="Přezdívka je neplatná"

[IRC_NewNick]
; EN: NewNickEntry.Caption="New Nickname: "
NewNickEntry.Caption="Nová přezdívka: "
OkButton.Caption="OK"

[IRC_Page]
; EN: HasLeftText="has left"
HasLeftText="opustil"
; EN: HasJoinedText="has joined"
HasJoinedText="přidal se"
; EN: WasKickedByText="was kicked by"
WasKickedByText="byl kopnut"
; EN: NowKnownAsText="is now known as"
NowKnownAsText="je nyní známý jako"
; EN: QuitText="Quit"
QuitText="Přestat"
; EN: SetsModeText="sets mode"
SetsModeText="nastaví režim"
; EN: NewTopicText="Topic"
NewTopicText="Téma"

[IRC_System]
; EN: NotInAChannelText="Not in a channel!"
NotInAChannelText="Ne v kanálu!"
; EN: KickedFromText="You were kicked from"
KickedFromText="Byli jste vykopnuti"
; EN: ByText="by"
ByText="podle"
; EN: IsAwayText="is away"
IsAwayText="je pryč"
; EN: ConnectText="CONNECT"
ConnectText="PŘIPOJIT"
; EN: DisconnectText="DISCONNECT"
DisconnectText="ODPOJIT"
; EN: MyChannelLabel.Caption="Channel"
MyChannelLabel.Caption="Kanál"
; EN: MyJoinChannelButton.Caption="JOIN CHANNEL"
MyJoinChannelButton.Caption="PŘIPOJTE SE K KANÁLU"
; EN: MyRemoveChannelButton.Caption="REMOVE CHANNEL"
MyRemoveChannelButton.Caption="ODSTRANIT KANÁL"
; EN: MyRemoveServerButton.Caption="REMOVE SERVER"
MyRemoveServerButton.Caption="ODEBRAT SERVER"
; EN: MyServerLabel.Caption="Server"
MyServerLabel.Caption="server"

[JoeTest]
; EN: TestButton1.Caption="Close Window"
TestButton1.Caption="Zavřít okno"
TitleText.Caption="Joe's Amazing Test GUI"

[JoeTestPanelA]
; EN: TestButtonA.Caption="Wow"
TestButtonA.Caption="Páni"
; EN: TestButtonB.Caption="Damn"
TestButtonB.Caption="Sakra"

[ScoreBoardDeathMatch]
; EN: RankText="RANK"
RankText="HODNOST"
; EN: PlayerText="PLAYER"
PlayerText="HRÁČ"
; EN: PointsText="SCORE"
PointsText="SKÓRE"
; EN: TimeText="TIME:"
TimeText="ČAS:"
PingText="PING:"
PLText="P/L:"
; EN: DeathsText="DEATHS"
DeathsText="ÚMRTÍ"
AdminText="ADMIN"
; EN: NetText="NET"
NetText="SÍŤ"
; EN: FooterText="Elapsed Time:"
FooterText="Uplynulý čas:"
; EN: MatchIDText="UT2004 Stats Match ID"
MatchIDText="ID shody statistik UT2004"
; EN: OutText="OUT"
OutText="VEN"
; EN: OutFireText="   You are OUT. Fire to view other players."
OutFireText="   Jsi venku. Spusťte, abyste viděli ostatní hráče."
; EN: ReadyText="READY"
ReadyText="PŘIPRAVEN"
; EN: NotReadyText="NOT RDY"
NotReadyText="NE RDY"
; EN: SkillLevel[0]="NOVICE"
SkillLevel[0]="NOVÁČEK"
; EN: SkillLevel[1]="AVERAGE"
SkillLevel[1]="PRŮMĚRNÝ"
; EN: SkillLevel[2]="EXPERIENCED"
SkillLevel[2]="ZKUŠENÝ"
; EN: SkillLevel[3]="SKILLED"
SkillLevel[3]="DOVEDNÝ"
SkillLevel[4]="ADEPT"
; EN: SkillLevel[5]="MASTERFUL"
SkillLevel[5]="MISTROVSKÝ"
; EN: SkillLevel[6]="INHUMAN"
SkillLevel[6]="NELIDSKÝ"
; EN: SkillLevel[7]="GODLIKE"
SkillLevel[7]="BOŽÍ"
; EN: MaxLives="MAX LIVES:"
MaxLives="MAX. ŽIVOT:"
; EN: FragLimit="FRAG LIMIT:"
FragLimit="LIMIT FRAG:"
FPH="PPH"
; EN: GameType="GAME"
GameType="HRA"
; EN: MapName=" in "
MapName=" v "
; EN: Restart="   You were killed. Press Fire to respawn!"
Restart="   Byl jsi zabit. Stiskněte Fire pro respawn!"
; EN: Continue=" Press [Fire] to continue!"
Continue=" Pokračujte stisknutím [Fire]!"
; EN: Ended="The match has ended."
Ended="Zápas skončil."
; EN: TimeLimit="REMAINING TIME:"
TimeLimit="ZBÝVAJÍCÍ ČAS:"
Spacer=" "

[ScoreBoardTeamDeathMatch]
; EN: FragLimit="SCORE LIMIT:"
FragLimit="LIMIT SKÓRE:"

[ServerBrowser]
MutantTypeName="Mutant"
; EN: InvasionTypeName="Invasion"
InvasionTypeName="Invaze"
; EN: LMSTypeName="Last Man Standing"
LMSTypeName="Poslední muž stojící"
MutantType="xMutantGame"
; EN: InvasionType="Invasion"
InvasionType="Invaze"
LMSType="xLastManStanding"
; EN: MyBRServerListPage.PageCaption="Bombing Run"
MyBRServerListPage.PageCaption="Bombardování Run"
; EN: MyBuddiesPage.PageCaption="Buddies"
MyBuddiesPage.PageCaption="Kamarádi"
MyCTFServerListPage.PageCaption="CTF"
; EN: MyCustomServerListPage.PageCaption="Custom"
MyCustomServerListPage.PageCaption="Zvyk"
MyDMServerListPage.PageCaption="DM"
; EN: MyDomServerListPage.PageCaption="Double Dom"
MyDomServerListPage.PageCaption="Dvojitý Dom"
; EN: MyFavoritesPage.PageCaption="Favorites"
MyFavoritesPage.PageCaption="Oblíbené"
; EN: MyIRCPage.PageCaption="Chat"
MyIRCPage.PageCaption="Povídat si"
MyLANPage.PageCaption="LAN"
; EN: MyMOTDPage.PageCaption="News"
MyMOTDPage.PageCaption="Zprávy"
; EN: MyPrefsPage.PageCaption="Filter"
MyPrefsPage.PageCaption="Filtr"
; EN: MyTDMServerListPage.PageCaption="Team DM"
MyTDMServerListPage.PageCaption="Tým DM"
; EN: ServerBrowserHeader.Caption="Server Browser"
ServerBrowserHeader.Caption="Serverový prohlížeč"

[Tab_AdminPlayerList]
; EN: AdminPlayerBan.Caption="Ban"
AdminPlayerBan.Caption="Zákaz"
; EN: AdminPlayerBan.Hint="Ban this player"
AdminPlayerBan.Hint="Zakázat tohoto hráče"
; EN: AdminPlayerKick.Caption="Kick"
AdminPlayerKick.Caption="Kop"
; EN: AdminPlayerKick.Hint="Kick this Player"
AdminPlayerKick.Hint="Nakopněte tohoto hráče"

[Tab_AudioSettings]
AudioModes[0]="Software 3D Audio"
AudioModes[1]="Hardware 3D Audio"
AudioModes[2]="Hardware 3D Audio + EAX"
; EN: AudioModes[3]="Safe Mode"
AudioModes[3]="Nouzový režim"
; EN: VoiceModes[0]="All"
VoiceModes[0]="Všechno"
; EN: VoiceModes[1]="No auto-taunts"
VoiceModes[1]="Žádné automatické posměšky"
; EN: VoiceModes[2]="No taunts"
VoiceModes[2]="Žádné posměšky"
; EN: VoiceModes[3]="None"
VoiceModes[3]="Žádný"
; EN: AnnounceModes[0]="None"
AnnounceModes[0]="Žádný"
; EN: AnnounceModes[1]="Minimal"
AnnounceModes[1]="Minimální"
; EN: AnnounceModes[2]="All"
AnnounceModes[2]="Všechno"
; EN: AudioAnnounce.Caption="Announcements"
AudioAnnounce.Caption="Oznámení"
; EN: AudioAnnounce.Hint="Adjusts the amount of in-game announcements."
AudioAnnounce.Hint="Upravuje množství oznámení ve hře."
; EN: AudioAnnouncerPack.Caption="Announcer Voice"
AudioAnnouncerPack.Caption="Hlas hlasatele"
; EN: AudioAnnouncerPack.Hint="Select the Announcer for tonight's game."
AudioAnnouncerPack.Hint="Vyberte hlasatele pro dnešní hru."
AudioAutoTaunt.Caption="Auto-Taunt"
; EN: AudioAutoTaunt.Hint="Enables your in-game player to automatically taunt opponents."
AudioAutoTaunt.Hint="Umožňuje vašemu hráči ve hře automaticky posmívat soupeře."
; EN: AudioEffectsVolumeLabel.Caption="Effects Volume"
AudioEffectsVolumeLabel.Caption="Hlasitost efektů"
; EN: AudioEffectsVolumeSlider.Hint="Changes the volume of all in game sound effects."
AudioEffectsVolumeSlider.Hint="Změní hlasitost všech zvukových efektů ve hře."
; EN: AudioLowDetail.Caption="Low Sound Detail"
AudioLowDetail.Caption="Detail nízkého zvuku"
; EN: AudioLowDetail.Hint="Lowers quality of sound."
AudioLowDetail.Hint="Snižuje kvalitu zvuku."
; EN: AudioMatureTaunts.Caption="Mature Taunts"
AudioMatureTaunts.Caption="Zralé posměšky"
; EN: AudioMatureTaunts.Hint="Enables off-color commentary."
AudioMatureTaunts.Hint="Povolí nebarevný komentář."
; EN: AudioMessageBeep.Caption="Message Beep"
AudioMessageBeep.Caption="Pípnutí zprávy"
; EN: AudioMessageBeep.Hint="Enables a beep when receiving a text message from other players."
AudioMessageBeep.Hint="Umožňuje pípnutí při příjmu textové zprávy od ostatních hráčů."
; EN: AudioMode.Caption="Audio Mode"
AudioMode.Caption="Režim zvuku"
; EN: AudioMode.Hint="Changes the audio system mode."
AudioMode.Hint="Změní režim audio systému."
; EN: AudioMusicVolumeLabel.Caption="Music Volume"
AudioMusicVolumeLabel.Caption="Hlasitost hudby"
; EN: AudioMusicVolumeSlider.Hint="Changes the volume of the background music."
AudioMusicVolumeSlider.Hint="Změní hlasitost hudby na pozadí."
; EN: AudioPlayVoices.Caption="Play Voices"
AudioPlayVoices.Caption="Přehrát hlasy"
; EN: AudioPlayVoices.Hint="Defines the types of voice messages to play."
AudioPlayVoices.Hint="Definuje typy hlasových zpráv, které se mají přehrát."
; EN: AudioReverseStereo.Caption="Reverse Stereo"
AudioReverseStereo.Caption="Reverzní stereo"
; EN: AudioReverseStereo.Hint="Reverses the left and right audio channels."
AudioReverseStereo.Hint="Převrátí levý a pravý zvukový kanál."
; EN: AudioVoiceVolumeLabel.Caption="Announcer Volume"
AudioVoiceVolumeLabel.Caption="Hlasitost hlasatele"
; EN: AudioVoiceVolumeSlider.Hint="Changes the volume of all in game voice messages."
AudioVoiceVolumeSlider.Hint="Změní hlasitost všech hlasových zpráv ve hře."

[Tab_ControlSettings]
; EN: Bindings=((KeyLabel="Movement"),(KeyLabel="Forward"),(KeyLabel="Backward"),(KeyLabel="Strafe Left"),(KeyLabel="Strafe Right"),(KeyLabel="Jump"),(KeyLabel="Walk"),(KeyLabel="Crouch"),(KeyLabel="Strafe Toggle"),(KeyLabel="Looking"),(KeyLabel="Turn Left"),(KeyLabel="Turn Right"),(KeyLabel="Look Up"),(KeyLabel="Look Down"),(KeyLabel="Center View"),(KeyLabel="Weapons"),(KeyLabel="Fire"),(KeyLabel="Alt-Fire"),(KeyLabel="Throw Weapon"),(KeyLabel="Best Weapon"),(KeyLabel="Next Weapon"),(KeyLabel="Prev Weapon"),(KeyLabel="Last Weapon"),(KeyLabel="Weapon Selection"),(KeyLabel="Super Weapon"),(KeyLabel="Shield Gun"),(KeyLabel="Assault Rifle"),(KeyLabel="Bio-Rifle"),(KeyLabel="Shock Rifle"),(KeyLabel="Link Gun"),(KeyLabel="Minigun"),(KeyLabel="Flak Cannon"),(KeyLabel="Rocket Launcher"),(KeyLabel="Lightning Rifle"),(KeyLabel="Translocator"),(KeyLabel="Communication"),(KeyLabel="Say"),(KeyLabel="Team Say"),(KeyLabel="Speech Menu"),(KeyLabel="Taunts"),(KeyLabel="Pelvic Thrust"),(KeyLabel="Ass Smack"),(KeyLabel="Throat Cut"),(KeyLabel="Hud"),(KeyLabel="Grow Hud"),(KeyLabel="Shrink Hud"),(KeyLabel="Miscellaneous"),(KeyLabel="Pause"),(KeyLabel="Screenshot"),(KeyLabel="Menu"),(KeyLabel="ScoreBoard"),(KeyLabel="ScoreBoard Toggle"),(KeyLabel="In Game Chat"),(KeyLabel="Server Info"))
Bindings=((KeyLabel="Hnutí"),(KeyLabel="Vpřed"),(KeyLabel="Pozadu"),(KeyLabel="Strafe vlevo"),(KeyLabel="Strafe Right"),(KeyLabel="Skok"),(KeyLabel="Procházka"),(KeyLabel="Přikrčte se"),(KeyLabel="Přepínač Strafe"),(KeyLabel="Hledá se"),(KeyLabel="Odbočit vlevo"),(KeyLabel="Odbočit vpravo"),(KeyLabel="Vzhlédnout"),(KeyLabel="Podívej se dolů"),(KeyLabel="Středový pohled"),(KeyLabel="Zbraně"),(KeyLabel="oheň"),(KeyLabel="Alt-Fire"),(KeyLabel="Házet zbraní"),(KeyLabel="Nejlepší zbraň"),(KeyLabel="Další zbraň"),(KeyLabel="Předchozí zbraň"),(KeyLabel="Poslední zbraň"),(KeyLabel="Výběr zbraní"),(KeyLabel="Super zbraň"),(KeyLabel="Štítová zbraň"),(KeyLabel="Útočná puška"),(KeyLabel="Bio-puška"),(KeyLabel="Šoková puška"),(KeyLabel="Link Gun"),(KeyLabel="Minigun"),(KeyLabel="Flak Cannon"),(KeyLabel="Raketomet"),(KeyLabel="Blesková puška"),(KeyLabel="Translokátor"),(KeyLabel="Sdělení"),(KeyLabel="Říci"),(KeyLabel="Tým Say"),(KeyLabel="Nabídka řeči"),(KeyLabel="posměšky"),(KeyLabel="Pánevní tah"),(KeyLabel="Ass Smack"),(KeyLabel="Řez hrdla"),(KeyLabel="Hud"),(KeyLabel="Grow Hud"),(KeyLabel="Zmenšit Hud"),(KeyLabel="Smíšený"),(KeyLabel="Pauza"),(KeyLabel="Snímek obrazovky"),(KeyLabel="Jídelní lístek"),(KeyLabel="Scoreboard"),(KeyLabel="Přepínání výsledkové tabulky"),(KeyLabel="V herním chatu"),(KeyLabel="Informace o serveru"))
Labels=("Movement","Forward","Backward","Strafe Left","Strafe Right","Jump","Walk","Crouch","Strafe Toggle","Looking","Turn Left","Turn Right","Look Up","Look Down","Center View","Weapons","Fire","Alt-Fire","Throw Weapon","Best Weapon","Next Weapon","Prev Weapon","Last Weapon","Weapon Selection","Super Weapon","Shield Gun","Assault Rifle","Bio-Rifle","Shock Rifle","Link Gun","Minigun","Flak Cannon","Rocket Launcher","Lightning Rifle","Translocator","Communication","Say","Team Say","Speech Menu","Taunts","Pelvic Thrust","Ass Smack","Throat Cut","Hud","Grow Hud","Shrink Hud","Miscellaneous","Pause","Screenshot","Menu","ScoreBoard","ScoreBoard Toggle","In Game Chat","Server Info")
Header="["
; EN: Footer="] Perform this action "
Footer="] Proveďte tuto akci "
; EN: KeyConfigAliasLabel.Caption="Action"
KeyConfigAliasLabel.Caption="Akce"
; EN: KeyConfigAliasLabel2.Caption="Key 1"
KeyConfigAliasLabel2.Caption="Klíč 1"
; EN: KeyConfigAliasLabel3.Caption="Key 2"
KeyConfigAliasLabel3.Caption="Klíč 2"
; EN: KeyConfigKeyList.Hint="Select Control to config"
KeyConfigKeyList.Hint="Pro konfiguraci vyberte Control"
; EN: KeyResetButton.Caption="RESET"
KeyResetButton.Caption="RESETOVAT"
; EN: KeyResetButton.Hint="Reset keys to default values"
KeyResetButton.Hint="Resetujte klíče na výchozí hodnoty"

[Tab_DetailSettings]
; EN: DetailLevels[0]="Lowest"
DetailLevels[0]="Nejnižší"
; EN: DetailLevels[1]="Lower"
DetailLevels[1]="Dolní"
; EN: DetailLevels[2]="Low"
DetailLevels[2]="Nízký"
; EN: DetailLevels[3]="Normal"
DetailLevels[3]="Normální"
; EN: DetailLevels[4]="High"
DetailLevels[4]="Vysoký"
; EN: DetailLevels[5]="Higher"
DetailLevels[5]="Vyšší"
; EN: DetailLevels[6]="Highest"
DetailLevels[6]="Nejvyšší"
; EN: DetailActorDetail.Caption="World Detail"
DetailActorDetail.Caption="Světový detail"
; EN: DetailActorDetail.Hint="Changes the level of detail used for optional geometry and effects."
DetailActorDetail.Hint="Změní úroveň detailů použitou pro volitelnou geometrii a efekty."
; EN: DetailBlob.Caption="Use Blob Shadows"
DetailBlob.Caption="Použijte Blob Shadows"
; EN: DetailBlob.Hint="Enable blob shadows.  Recommended for low-performance PCs."
DetailBlob.Hint="Povolit stíny objektů blob. Doporučeno pro počítače s nízkým výkonem."
; EN: DetailCharacterDetail.Caption="Character Detail"
DetailCharacterDetail.Caption="Detail postavy"
; EN: DetailCharacterDetail.Hint="Changes how much character detail will be rendered."
DetailCharacterDetail.Hint="Změní, kolik detailů postavy bude vykresleno."