[AdminPlayerList]
ColumnHeadings=("Player Name","Unique ID","IP")

[Browser_AddBuddy]
; EN: AddBuddyDesc.Caption="Add Buddy"
AddBuddyDesc.Caption="Legg til Buddy"
; EN: BuddyEntryBox.Caption="Buddy Name: "
BuddyEntryBox.Caption="Vennens navn: "
; EN: CancelButton.Caption="CANCEL"
CancelButton.Caption="AVBRYT"
OkButton.Caption="OK"

[Browser_BuddyList]
ColumnHeadings=("Buddy Name")

[Browser_IRC]
SystemLabel="System"
; EN: LeaveChannelCaption="LEAVE CHANNEL"
LeaveChannelCaption="FORLA KANALEN"
; EN: LeavePrivateCaptionHead="CLOSE "
LeavePrivateCaptionHead="LUKK "
; EN: ChooseNewNickText="Choose A New Chat Nickname"
ChooseNewNickText="Velg et nytt chat-kallenavn"
; EN: MyBackButton.Caption="BACK"
MyBackButton.Caption="TILBAKE"
; EN: MyChangeNickButton.Caption="CHANGE NICK"
MyChangeNickButton.Caption="BYTT NICK"

[Browser_IconKey]
; EN: DialogText.Caption="Server Icon Key"
DialogText.Caption="Serverikonnøkkel"
OkButton.Caption="OK"

[Browser_MOTD]
VersionString="Ver."
; EN: MyBackButton.Caption="BACK"
MyBackButton.Caption="TILBAKE"
; EN: MyRefreshButton.Caption="REFRESH"
MyRefreshButton.Caption="FORFRISKE"
; EN: MyUpgradeButton.Caption="UPGRADE"
MyUpgradeButton.Caption="OPPGRADERING"

[Browser_OpenIP]
; EN: CancelButton.Caption="CANCEL"
CancelButton.Caption="AVBRYT"
; EN: IpEntryBox.Caption="IP Address: "
IpEntryBox.Caption="IP adresse: "
OkButton.Caption="OK"
; EN: OpenIPDesc.Caption="Enter New IP Address"
OpenIPDesc.Caption="Skriv inn ny IP-adresse"

[Browser_Page]
; EN: StartQueryString="Querying Master Server"
StartQueryString="Spørre Master Server"
; EN: AuthFailString="Authentication Failed"
AuthFailString="Autentisering mislyktes"
; EN: ConnFailString="Connection Failed - Retrying"
ConnFailString="Tilkobling mislyktes - prøver på nytt"
; EN: ConnTimeoutString="Connection Timed Out"
ConnTimeoutString="Tilkobling tidsavbrutt"
; EN: QueryCompleteString="Query Complete!"
QueryCompleteString="Spørsmålet er fullført!"
; EN: RefreshCompleteString="Refresh Complete!"
RefreshCompleteString="Oppdatering fullført!"
; EN: ReadyString="Ready"
ReadyString="Klar"

[Browser_PlayersList]
ColumnHeadings=("Player Name","Score","Stats ID","Ping")

[Browser_Prefs]
; EN: ViewStatsStrings[0]="Any Servers"
ViewStatsStrings[0]="Eventuelle servere"
; EN: ViewStatsStrings[1]="Only Stats Servers"
ViewStatsStrings[1]="Kun statistikkservere"
; EN: ViewStatsStrings[2]="No Stats Servers"
ViewStatsStrings[2]="Ingen statistikkservere"
; EN: MutatorModeStrings[0]="Any Mutators"
MutatorModeStrings[0]="Eventuelle mutatorer"
; EN: MutatorModeStrings[1]="No Mutators"
MutatorModeStrings[1]="Ingen mutatorer"
; EN: MutatorModeStrings[2]="This Mutator"
MutatorModeStrings[2]="Denne mutatoren"
; EN: MutatorModeStrings[3]="Not This Mutator"
MutatorModeStrings[3]="Ikke denne mutatoren"
; EN: WeaponStayStrings[0]="Any Servers"
WeaponStayStrings[0]="Eventuelle servere"
; EN: WeaponStayStrings[1]="Only Weapon Stay Servers"
WeaponStayStrings[1]="Kun våpenoppholdsservere"
; EN: WeaponStayStrings[2]="No Weapon Stay Servers"
WeaponStayStrings[2]="Ingen våpenoppholdsservere"
; EN: TranslocatorStrings[0]="Any Servers"
TranslocatorStrings[0]="Eventuelle servere"
; EN: TranslocatorStrings[1]="Only Translocator Servers"
TranslocatorStrings[1]="Kun translokatorservere"
; EN: TranslocatorStrings[2]="No Translocator Servers"
TranslocatorStrings[2]="Ingen translokatorservere"
; EN: CustomQuery.Caption="Custom Query"
CustomQuery.Caption="Egendefinert spørring"
; EN: FilterTitle.Caption="Server Filtering Options:"
FilterTitle.Caption="Serverfiltreringsalternativer:"
; EN: MaxGamespeed.Caption="Max"
MaxGamespeed.Caption="Maks"
; EN: MinGamespeed.Caption="Game Speed Min"
MinGamespeed.Caption="Spillhastighet Min"
; EN: MutatorModeCombo.Caption="Mutators"
MutatorModeCombo.Caption="Mutatorer"
; EN: MyBackButton.Caption="BACK"
MyBackButton.Caption="TILBAKE"
; EN: MyKeyButton.Caption="ICON KEY"
MyKeyButton.Caption="IKONTØKKEL"
; EN: NoBotServersCheckBox.Caption="No Servers With Bots"
NoBotServersCheckBox.Caption="Ingen servere med bots"
; EN: NoEmptyCheckBox.Caption="No Empty Servers"
NoEmptyCheckBox.Caption="Ingen tomme servere"
; EN: NoFullCheckBox.Caption="No Full Servers"
NoFullCheckBox.Caption="Ingen komplette servere"
; EN: NoPasswdCheckBox.Caption="No Passworded Servers"
NoPasswdCheckBox.Caption="Ingen servere med passord"
; EN: OnlyStandardCheckBox.Caption="Only Standard Servers"
OnlyStandardCheckBox.Caption="Kun standardservere"
; EN: StatsViewCombo.Caption="Stats Servers"
StatsViewCombo.Caption="Statistikk servere"
; EN: TranslocatorCombo.Caption="Translocator"
TranslocatorCombo.Caption="Translokator"
WeaponStayCombo.Caption="WeaponStay"

[Browser_RulesList]
; EN: TrueString="Enabled"
TrueString="Aktivert"
; EN: FalseString="Disabled"
FalseString="Funksjonshemmet"
; EN: ServerModeString="Server Mode"
ServerModeString="Servermodus"
; EN: DedicatedString="Dedicated"
DedicatedString="Dedikert"
; EN: NonDedicatedString="Non-Dedicated"
NonDedicatedString="Ikke-dedikert"
AdminNameString="Server Admin"
; EN: AdminEmailString="Admin Email"
AdminEmailString="Admin e-post"
; EN: PasswordString="Requires Password"
PasswordString="Krever passord"
; EN: GameStatsString="UT2004 Stats"
GameStatsString="UT2004-statistikk"
; EN: GameSpeedString="Game Speed"
GameSpeedString="Spillhastighet"
MutatorString="Mutator"
BalanceTeamsString="Bots Balance Teams"
; EN: PlayersBalanceTeamsString="Balance Teams"
PlayersBalanceTeamsString="Balanse lag"
; EN: FriendlyFireString="Friendly Fire"
FriendlyFireString="Vennlig ild"
; EN: GoalScoreString="Goal Score"
GoalScoreString="Målscore"
; EN: TimeLimitString="Time Limit"
TimeLimitString="Tidsbegrensning"
; EN: MinPlayersString="Minimum Players (bots)"
MinPlayersString="Minimum spillere (bots)"
; EN: TranslocatorString="Translocator"
TranslocatorString="Translokator"
; EN: WeaponStayString="Weapons Stay"
WeaponStayString="Våpenopphold"
ColumnHeadings=("Setting","Value")

[Browser_ServerListPageBase]
; EN: AddFavoriteButton.Caption="ADD FAVORITE"
AddFavoriteButton.Caption="LEGG TIL FAVORITT"
; EN: BackButton.Caption="BACK"
BackButton.Caption="TILBAKE"
; EN: JoinButton.Caption="JOIN"
JoinButton.Caption="BLI MED"
; EN: RefreshButton.Caption="REFRESH LIST"
RefreshButton.Caption="OPPDATER LISTE"
SpectateButton.Caption="SPECTATE"

[Browser_ServerListPageBuddy]
; EN: AddBuddyCaption="ADD BUDDY"
AddBuddyCaption="LEGG TIL VENN"
; EN: RemoveBuddyCaption="REMOVE BUDDY"
RemoveBuddyCaption="FJER KOMMEN"

[Browser_ServerListPageFavorites]
; EN: RemoveFavoriteCaption="REMOVE FAVORITE"
RemoveFavoriteCaption="FJERN FAVORITT"
; EN: AddIPCaption="ADD IP"
AddIPCaption="LEGG TIL IP"
; EN: RePingCaption="RE-PING LIST"
RePingCaption="RE-PINGLISTE"

[Browser_ServerListPageMS]
; EN: QueryFinHead="Query Complete! Received: "
QueryFinHead="Spørsmålet er fullført! Mottatt: "
; EN: QueryFinTail=" Servers"
QueryFinTail=" Servere"
; EN: PingRecvString="Pinging Servers"
PingRecvString="Pingende servere"
; EN: MustUpgradeString="Upgrade available. Please refresh the News page."
MustUpgradeString="Oppgradering tilgjengelig. Vennligst oppdater nyhetssiden."
; EN: RefreshFinHead="Pinging Complete! "
RefreshFinHead="Pingingen er fullført! "
; EN: RefreshFinMid=" Servers, "
RefreshFinMid=" Servere, "
; EN: RefreshFinTail=" Players"
RefreshFinTail=" Spillere"
; EN: RePingServersCaption="RE-PING LIST"
RePingServersCaption="RE-PINGLISTE"
; EN: RefreshCaption="REFRESH LIST"
RefreshCaption="OPPDATER LISTE"

[Browser_ServerListPageMSCustom]
; EN: MyGameTypeLabel.Caption="Game Type"
MyGameTypeLabel.Caption="Spilltype"

[Browser_ServersList]
IconDescriptions=("Passworded","Stats Enabled","Latest Version","Listen Server","Instagib","Standard Server","UT Classic")
ColumnHeadings=(,"Server Name","Map","Players","Ping")

[DefaultCrosshairs]
; EN: Crosshair=((FriendlyName="Cross (1)"),(FriendlyName="Cross (2)"),(FriendlyName="Cross (3)"),(FriendlyName="Cross (4)"),(FriendlyName="Cross (5)"),(FriendlyName="Dot"),(FriendlyName="Pointer"),(FriendlyName="Triad (1)"),(FriendlyName="Triad (2)"),(FriendlyName="Triad (3)"),(FriendlyName="Bracket (1)"),(FriendlyName="Bracket (2)"),(FriendlyName="Circle (1)"),(FriendlyName="Circle (2)"))
Crosshair=((FriendlyName="Kryss (1)"),(FriendlyName="Kryss (2)"),(FriendlyName="Kryss (3)"),(FriendlyName="Kryss (4)"),(FriendlyName="Kryss (5)"),(FriendlyName="Punktum"),(FriendlyName="Peker"),(FriendlyName="Triade (1)"),(FriendlyName="Triade (2)"),(FriendlyName="Triade (3)"),(FriendlyName="Brakett (1)"),(FriendlyName="Brakett (2)"),(FriendlyName="Sirkel (1)"),(FriendlyName="Sirkel (2)"))

[ExtendedConsole]
; EN: AddedCurrentHead="Added Server:"
AddedCurrentHead="Lagt til server:"
; EN: AddedCurrentTail="To Favorites!"
AddedCurrentTail="Til favoritter!"
; EN: ServerFullMsg="Server is now full"
ServerFullMsg="Serveren er nå full"
; EN: SMStateName[0]="Speech Menu"
SMStateName[0]="Talemeny"
; EN: SMStateName[1]="Voice Chat"
SMStateName[1]="Stemmechat"
; EN: SMStateName[2]="Acknowledge"
SMStateName[2]="Anerkjenne"
; EN: SMStateName[3]="Friendly Fire"
SMStateName[3]="Vennlig ild"
; EN: SMStateName[4]="Order"
SMStateName[4]="Rekkefølge"
; EN: SMStateName[5]="Other"
SMStateName[5]="Annen"
; EN: SMStateName[6]="Taunt"
SMStateName[6]="håne"
; EN: SMStateName[7]="Taunt Anim"
SMStateName[7]="Håne Anim"
; EN: SMStateName[8]="Player Select"
SMStateName[8]="Spillervalg"
; EN: SMChannelOptions[0]="Join"
SMChannelOptions[0]="Bli med"
; EN: SMChannelOptions[1]="Leave"
SMChannelOptions[1]="Permisjon"
; EN: SMChannelOptions[2]="Talk"
SMChannelOptions[2]="Snakke"
; EN: SMAllString="[ALL]"
SMAllString="[ALLE]"
; EN: SMMoreString="[MORE]"
SMMoreString="[MER]"

[GUIController]
; EN: DesignModeHints=((Key=" Key",Description="                                Description"),(Key=" (F1)",Description="                                View this help screen"),(Key=" Ctrl + Alt + D",Description="                      Toggles design mode"),(Key=" Ctrl + Alt + E",Description="                      Toggles property editor mode"),(Key=" [Ctrl +] H",Description="                          Toggles active/focused info"),(Key=" [Ctrl +] I",Description="                          Toggle interactive mode"),(Key=" [Ctrl +] P",Description="                          Toggles full MenuOwner chains for active/focused"),(Key=" [Ctrl +] C",Description="                          Copy MoveControl position to clipboard"),(Key=" [Ctrl +] X",Description="                          Export MoveControl to clipboard"),(Key=" [Ctrl +] U",Description="                          Refresh the property window in the designer"),(Key=" [Ctrl +] Up/Down/Left/Right",Description="         Reposition MoveControl using arrow keys"),(Key=" [Ctrl +] +/-",Description="                        Resize MoveControl vertically"),(Key=" [Ctrl +] Num+/Num-",Description="                  Resize selected component horizontally"),(Key=" [Ctrl +] WheelUp",Description="                    Set MoveControl to MoveControl's menuowner"),(Key=" [Ctrl +] WheenDown",Description="                  Set MoveControl to MoveControl's focused control"),(Key=" [(Ctrl + Alt) +] MouseX/Y+LMouse",Description="    Reposition MoveControl using mouse"),(Key=" (Shift)",Description="                             Hides all design mode indicators"),(Key=" (Ctrl + Alt)",Description="                        View focus chain"),(Key=" [Ctrl +] Tab",Description="                        Select new MoveControl"),(Key=" [Ctrl +] LMouse",Description="                     Select new MoveControl"))
DesignModeHints=((Key=" Nøkkel",Description="                                Beskrivelse"),(Key=" (F1)",Description="                                Se denne hjelpeskjermen"),(Key=" Ctrl + Alt + D",Description="                      Bytter designmodus"),(Key=" Ctrl + Alt + E",Description="                      Bytter eiendomsredigeringsmodus"),(Key=" [Ctrl +] H",Description="                          Bytter aktiv/fokusert informasjon"),(Key=" [Ctrl +] I",Description="                          Bytt interaktiv modus"),(Key=" [Ctrl +] P",Description="                          Bytter hele MenuOwner-kjeder for aktiv/fokusert"),(Key=" [Ctrl +] C",Description="                          Kopier MoveControl-posisjonen til utklippstavlen"),(Key=" [Ctrl +] X",Description="                          Eksporter MoveControl til utklippstavlen"),(Key=" [Ctrl +] U",Description="                          Oppdater eiendomsvinduet i designeren"),(Key=" [Ctrl +] Opp/Ned/Venstre/Høyre",Description="         Flytt MoveControl ved hjelp av piltastene"),(Key=" [Ctrl +] +/-",Description="                        Endre størrelsen på MoveControl vertikalt"),(Key=" [Ctrl +] Num+/Num-",Description="                  Endre størrelsen på valgt komponent horisontalt"),(Key=" [Ctrl +] WheelUp",Description="                    Sett MoveControl til MoveControls menyeier"),(Key=" [Ctrl +] WheenDown",Description="                  Sett MoveControl til MoveControls fokuserte kontroll"),(Key=" [(Ctrl + Alt) +] MouseX/Y+LMouse",Description="    Flytt MoveControl med musen"),(Key=" (Skifte)",Description="                             Skjuler alle designmodusindikatorer"),(Key=" (Ctrl + Alt)",Description="                        Se fokuskjeden"),(Key=" [Ctrl +] Tab",Description="                        Velg ny MoveControl"),(Key=" [Ctrl +] LMaus",Description="                     Velg ny MoveControl"))

[GUIQuestionPage]
ButtonNames=("Ok","Cancel","Retry","Continue","Yes","No","Abort","Ignore")

[HudBTeamDeathMatch]
; EN: LinkEstablishedMessage="LINK ESTABLISHED"
LinkEstablishedMessage="LINK ETABLERT"

[HudBase]
InstructionFontName="UT2003Fonts.jFontMono800x600"
; EN: LevelActionLoading="LOADING..."
LevelActionLoading="LASTER..."
; EN: LevelActionPaused="PAUSED"
LevelActionPaused="PAUSE"
LevelActionFontName="UT2003Fonts.FontMedium"
; EN: WonMatchPostFix=" won the match!"
WonMatchPostFix=" vant kampen!"
; EN: WaitingToSpawn="Press [Fire] to join the match!"
WaitingToSpawn="Trykk på [Fire] for å bli med i kampen!"
; EN: AtMenus="Press [ESC] to close menu"
AtMenus="Trykk [ESC] for å lukke menyen"
; EN: YouveWonTheMatch="You've won the match!"
YouveWonTheMatch="Du har vunnet kampen!"
; EN: YouveLostTheMatch="You've lost the match."
YouveLostTheMatch="Du har tapt kampen."
; EN: NowViewing="Now viewing"
NowViewing="Ser nå"
ScoreText="Score"
; EN: InitialViewingString="Press Fire to View a different Player"
InitialViewingString="Trykk Fire for å se en annen spiller"
ProgressFontName="UT2003Fonts.FontMedium"
FontArrayNames[0]="UT2003Fonts.FontEurostile37"
FontArrayNames[1]="UT2003Fonts.FontEurostile29"
FontArrayNames[2]="UT2003Fonts.FontEurostile24"
FontArrayNames[3]="UT2003Fonts.FontEurostile21"
FontArrayNames[4]="UT2003Fonts.FontEurostile17"
FontArrayNames[5]="UT2003Fonts.FontEurostile14"
FontArrayNames[6]="UT2003Fonts.FontEurostile12"
FontArrayNames[7]="UT2003Fonts.FontEurostile9"
FontArrayNames[8]="UT2003Fonts.FontSmallText"

[HudCTeamDeathMatch]
; EN: LinkEstablishedMessage="LINK ESTABLISHED"
LinkEstablishedMessage="LINK ETABLERT"

[IRCLink]
; EN: InvalidAddressText="Invalid server address, aborting."
InvalidAddressText="Ugyldig serveradresse, avbryter."
; EN: ErrorBindingText="Error binding local port, aborting."
ErrorBindingText="Feil ved binding av lokal port, avbryter."
; EN: ResolveFailedText="Failed to resolve server address, aborting."
ResolveFailedText="Kunne ikke løse serveradressen, avbryter."
; EN: ConnectedText="Connected."
ConnectedText="Tilkoblet."
; EN: ConnectingToText="Connecting to"
ConnectingToText="Kobler til"
; EN: TimeOutError="Timeout connecting to server."
TimeOutError="Tidsavbrudd for tilkobling til server."
; EN: InviteString="invites you to join"
InviteString="inviterer deg til å bli med"
; EN: NickInUseText="Nickname Already In Use"
NickInUseText="Kallenavn er allerede i bruk"
; EN: NickInvalidText="Nickname Is Invalid"
NickInvalidText="Kallenavnet er ugyldig"

[IRC_NewNick]
; EN: NewNickEntry.Caption="New Nickname: "
NewNickEntry.Caption="Nytt kallenavn: "
OkButton.Caption="OK"

[IRC_Page]
; EN: HasLeftText="has left"
HasLeftText="har forlatt"
; EN: HasJoinedText="has joined"
HasJoinedText="har blitt med"
; EN: WasKickedByText="was kicked by"
WasKickedByText="ble sparket av"
; EN: NowKnownAsText="is now known as"
NowKnownAsText="er nå kjent som"
; EN: QuitText="Quit"
QuitText="Slutte"
; EN: SetsModeText="sets mode"
SetsModeText="setter inn modus"
; EN: NewTopicText="Topic"
NewTopicText="Emne"

[IRC_System]
; EN: NotInAChannelText="Not in a channel!"
NotInAChannelText="Ikke i en kanal!"
; EN: KickedFromText="You were kicked from"
KickedFromText="Du ble sparket fra"
; EN: ByText="by"
ByText="av"
; EN: IsAwayText="is away"
IsAwayText="er borte"
; EN: ConnectText="CONNECT"
ConnectText="KOBLE"
; EN: DisconnectText="DISCONNECT"
DisconnectText="KOBLE FRA"
; EN: MyChannelLabel.Caption="Channel"
MyChannelLabel.Caption="Kanal"
; EN: MyJoinChannelButton.Caption="JOIN CHANNEL"
MyJoinChannelButton.Caption="BLI MED I KANAL"
; EN: MyRemoveChannelButton.Caption="REMOVE CHANNEL"
MyRemoveChannelButton.Caption="FJERN KANAL"
; EN: MyRemoveServerButton.Caption="REMOVE SERVER"
MyRemoveServerButton.Caption="FJERN SERVER"
MyServerLabel.Caption="Server"

[JoeTest]
; EN: TestButton1.Caption="Close Window"
TestButton1.Caption="Lukk vindu"
TitleText.Caption="Joe's Amazing Test GUI"

[JoeTestPanelA]
TestButtonA.Caption="Wow"
; EN: TestButtonB.Caption="Damn"
TestButtonB.Caption="Jammen"

[ScoreBoardDeathMatch]
; EN: RankText="RANK"
RankText="RANG"
; EN: PlayerText="PLAYER"
PlayerText="SPILLER"
PointsText="SCORE"
; EN: TimeText="TIME:"
TimeText="TID:"
PingText="PING:"
PLText="P/L:"
; EN: DeathsText="DEATHS"
DeathsText="DØDSFALL"
AdminText="ADMIN"
; EN: NetText="NET"
NetText="NETT"
; EN: FooterText="Elapsed Time:"
FooterText="Forløpt tid:"
MatchIDText="UT2004 Stats Match ID"
; EN: OutText="OUT"
OutText="UTE"
; EN: OutFireText="   You are OUT. Fire to view other players."
OutFireText="   Du er ute. Fyr for å se andre spillere."
; EN: ReadyText="READY"
ReadyText="KLAR"
; EN: NotReadyText="NOT RDY"
NotReadyText="IKKE RDY"
; EN: SkillLevel[0]="NOVICE"
SkillLevel[0]="NYBARHET"
; EN: SkillLevel[1]="AVERAGE"
SkillLevel[1]="GJENNOMSNITT"
; EN: SkillLevel[2]="EXPERIENCED"
SkillLevel[2]="OPPLEVDE"
; EN: SkillLevel[3]="SKILLED"
SkillLevel[3]="FERDIG"
; EN: SkillLevel[4]="ADEPT"
SkillLevel[4]="DYKTIG"
; EN: SkillLevel[5]="MASTERFUL"
SkillLevel[5]="MESTERFULLT"
; EN: SkillLevel[6]="INHUMAN"
SkillLevel[6]="UMENNESKELIG"
; EN: SkillLevel[7]="GODLIKE"
SkillLevel[7]="GUDLIK"
MaxLives="MAX LIVES:"
; EN: FragLimit="FRAG LIMIT:"
FragLimit="FRAG GRENSE:"
FPH="PPH"
; EN: GameType="GAME"
GameType="SPILL"
; EN: MapName=" in "
MapName=" i "
; EN: Restart="   You were killed. Press Fire to respawn!"
Restart="   Du ble drept. Trykk Fire for å gjenopprette!"
; EN: Continue=" Press [Fire] to continue!"
Continue=" Trykk på [Brann] for å fortsette!"
; EN: Ended="The match has ended."
Ended="Kampen er avsluttet."
; EN: TimeLimit="REMAINING TIME:"
TimeLimit="GJENVÆRENDE TID:"
Spacer=" "

[ScoreBoardTeamDeathMatch]
; EN: FragLimit="SCORE LIMIT:"
FragLimit="POENGGRENSE:"

[ServerBrowser]
MutantTypeName="Mutant"
; EN: InvasionTypeName="Invasion"
InvasionTypeName="Invasjon"
; EN: LMSTypeName="Last Man Standing"
LMSTypeName="Siste mann som står"
MutantType="xMutantGame"
; EN: InvasionType="Invasion"
InvasionType="Invasjon"
LMSType="xLastManStanding"
MyBRServerListPage.PageCaption="Bombing Run"
; EN: MyBuddiesPage.PageCaption="Buddies"
MyBuddiesPage.PageCaption="Venner"
MyCTFServerListPage.PageCaption="CTF"
; EN: MyCustomServerListPage.PageCaption="Custom"
MyCustomServerListPage.PageCaption="Tilpasset"
MyDMServerListPage.PageCaption="DM"
; EN: MyDomServerListPage.PageCaption="Double Dom"
MyDomServerListPage.PageCaption="Dobbel Dom"
; EN: MyFavoritesPage.PageCaption="Favorites"
MyFavoritesPage.PageCaption="Favoritter"
MyIRCPage.PageCaption="Chat"
MyLANPage.PageCaption="LAN"
; EN: MyMOTDPage.PageCaption="News"
MyMOTDPage.PageCaption="Nyheter"
MyPrefsPage.PageCaption="Filter"
MyTDMServerListPage.PageCaption="Team DM"
; EN: ServerBrowserHeader.Caption="Server Browser"
ServerBrowserHeader.Caption="Servernettleser"

[Tab_AdminPlayerList]
; EN: AdminPlayerBan.Caption="Ban"
AdminPlayerBan.Caption="Forby"
; EN: AdminPlayerBan.Hint="Ban this player"
AdminPlayerBan.Hint="Ban denne spilleren"
; EN: AdminPlayerKick.Caption="Kick"
AdminPlayerKick.Caption="Sparke"
; EN: AdminPlayerKick.Hint="Kick this Player"
AdminPlayerKick.Hint="Spark denne spilleren"

[Tab_AudioSettings]
; EN: AudioModes[0]="Software 3D Audio"
AudioModes[0]="Programvare for 3D-lyd"
; EN: AudioModes[1]="Hardware 3D Audio"
AudioModes[1]="Maskinvare 3D-lyd"
; EN: AudioModes[2]="Hardware 3D Audio + EAX"
AudioModes[2]="Maskinvare 3D Audio + EAX"
; EN: AudioModes[3]="Safe Mode"
AudioModes[3]="Sikkerhetsmodus"
; EN: VoiceModes[0]="All"
VoiceModes[0]="Alle"
; EN: VoiceModes[1]="No auto-taunts"
VoiceModes[1]="Ingen automatisk hån"
; EN: VoiceModes[2]="No taunts"
VoiceModes[2]="Ingen hån"
; EN: VoiceModes[3]="None"
VoiceModes[3]="Ingen"
; EN: AnnounceModes[0]="None"
AnnounceModes[0]="Ingen"
AnnounceModes[1]="Minimal"
; EN: AnnounceModes[2]="All"
AnnounceModes[2]="Alle"
; EN: AudioAnnounce.Caption="Announcements"
AudioAnnounce.Caption="Kunngjøringer"
; EN: AudioAnnounce.Hint="Adjusts the amount of in-game announcements."
AudioAnnounce.Hint="Justerer mengden av kunngjøringer i spillet."
; EN: AudioAnnouncerPack.Caption="Announcer Voice"
AudioAnnouncerPack.Caption="Annonsørstemme"
; EN: AudioAnnouncerPack.Hint="Select the Announcer for tonight's game."
AudioAnnouncerPack.Hint="Velg kunngjøreren for kveldens kamp."
; EN: AudioAutoTaunt.Caption="Auto-Taunt"
AudioAutoTaunt.Caption="Automatisk hån"
; EN: AudioAutoTaunt.Hint="Enables your in-game player to automatically taunt opponents."
AudioAutoTaunt.Hint="Gjør det mulig for spilleren din å automatisk håne motstandere."
; EN: AudioEffectsVolumeLabel.Caption="Effects Volume"
AudioEffectsVolumeLabel.Caption="Effektvolum"
; EN: AudioEffectsVolumeSlider.Hint="Changes the volume of all in game sound effects."
AudioEffectsVolumeSlider.Hint="Endrer volumet på alle lydeffekter i spillet."
; EN: AudioLowDetail.Caption="Low Sound Detail"
AudioLowDetail.Caption="Lav lyddetaljer"
; EN: AudioLowDetail.Hint="Lowers quality of sound."
AudioLowDetail.Hint="Senker lydkvaliteten."
; EN: AudioMatureTaunts.Caption="Mature Taunts"
AudioMatureTaunts.Caption="Modne hån"
; EN: AudioMatureTaunts.Hint="Enables off-color commentary."
AudioMatureTaunts.Hint="Aktiverer ikke-fargekommentarer."
; EN: AudioMessageBeep.Caption="Message Beep"
AudioMessageBeep.Caption="Melding Pip"
; EN: AudioMessageBeep.Hint="Enables a beep when receiving a text message from other players."
AudioMessageBeep.Hint="Aktiverer et pip når du mottar en tekstmelding fra andre spillere."
; EN: AudioMode.Caption="Audio Mode"
AudioMode.Caption="Lydmodus"
; EN: AudioMode.Hint="Changes the audio system mode."
AudioMode.Hint="Endrer lydsystemmodus."
; EN: AudioMusicVolumeLabel.Caption="Music Volume"
AudioMusicVolumeLabel.Caption="Musikkvolum"
; EN: AudioMusicVolumeSlider.Hint="Changes the volume of the background music."
AudioMusicVolumeSlider.Hint="Endrer volumet på bakgrunnsmusikken."
; EN: AudioPlayVoices.Caption="Play Voices"
AudioPlayVoices.Caption="Spill stemmer"
; EN: AudioPlayVoices.Hint="Defines the types of voice messages to play."
AudioPlayVoices.Hint="Definerer typene talemeldinger som skal spilles av."
; EN: AudioReverseStereo.Caption="Reverse Stereo"
AudioReverseStereo.Caption="Omvendt stereo"
; EN: AudioReverseStereo.Hint="Reverses the left and right audio channels."
AudioReverseStereo.Hint="Reverserer venstre og høyre lydkanal."
; EN: AudioVoiceVolumeLabel.Caption="Announcer Volume"
AudioVoiceVolumeLabel.Caption="Meldervolum"
; EN: AudioVoiceVolumeSlider.Hint="Changes the volume of all in game voice messages."
AudioVoiceVolumeSlider.Hint="Endrer volumet på alle talemeldinger i spillet."

[Tab_ControlSettings]
; EN: Bindings=((KeyLabel="Movement"),(KeyLabel="Forward"),(KeyLabel="Backward"),(KeyLabel="Strafe Left"),(KeyLabel="Strafe Right"),(KeyLabel="Jump"),(KeyLabel="Walk"),(KeyLabel="Crouch"),(KeyLabel="Strafe Toggle"),(KeyLabel="Looking"),(KeyLabel="Turn Left"),(KeyLabel="Turn Right"),(KeyLabel="Look Up"),(KeyLabel="Look Down"),(KeyLabel="Center View"),(KeyLabel="Weapons"),(KeyLabel="Fire"),(KeyLabel="Alt-Fire"),(KeyLabel="Throw Weapon"),(KeyLabel="Best Weapon"),(KeyLabel="Next Weapon"),(KeyLabel="Prev Weapon"),(KeyLabel="Last Weapon"),(KeyLabel="Weapon Selection"),(KeyLabel="Super Weapon"),(KeyLabel="Shield Gun"),(KeyLabel="Assault Rifle"),(KeyLabel="Bio-Rifle"),(KeyLabel="Shock Rifle"),(KeyLabel="Link Gun"),(KeyLabel="Minigun"),(KeyLabel="Flak Cannon"),(KeyLabel="Rocket Launcher"),(KeyLabel="Lightning Rifle"),(KeyLabel="Translocator"),(KeyLabel="Communication"),(KeyLabel="Say"),(KeyLabel="Team Say"),(KeyLabel="Speech Menu"),(KeyLabel="Taunts"),(KeyLabel="Pelvic Thrust"),(KeyLabel="Ass Smack"),(KeyLabel="Throat Cut"),(KeyLabel="Hud"),(KeyLabel="Grow Hud"),(KeyLabel="Shrink Hud"),(KeyLabel="Miscellaneous"),(KeyLabel="Pause"),(KeyLabel="Screenshot"),(KeyLabel="Menu"),(KeyLabel="ScoreBoard"),(KeyLabel="ScoreBoard Toggle"),(KeyLabel="In Game Chat"),(KeyLabel="Server Info"))
Bindings=((KeyLabel="Bevegelse"),(KeyLabel="Framover"),(KeyLabel="Bakover"),(KeyLabel="Strafe venstre"),(KeyLabel="Straf Right"),(KeyLabel="Hoppe"),(KeyLabel="Gå"),(KeyLabel="Krøke"),(KeyLabel="Strafe Toggle"),(KeyLabel="Ser"),(KeyLabel="Ta til venstre"),(KeyLabel="Ta til høyre"),(KeyLabel="Se opp"),(KeyLabel="Se ned"),(KeyLabel="Sentervisning"),(KeyLabel="Våpen"),(KeyLabel="Brann"),(KeyLabel="Alt-Fire"),(KeyLabel="Kast våpen"),(KeyLabel="Beste våpen"),(KeyLabel="Neste våpen"),(KeyLabel="Forrige våpen"),(KeyLabel="Siste våpen"),(KeyLabel="Våpenvalg"),(KeyLabel="Supervåpen"),(KeyLabel="Skjoldpistol"),(KeyLabel="Assault Rifle"),(KeyLabel="Bio-rifle"),(KeyLabel="Sjokkrifle"),(KeyLabel="Link Gun"),(KeyLabel="Minigun"),(KeyLabel="Flak Cannon"),(KeyLabel="Rakettkaster"),(KeyLabel="Lynrifle"),(KeyLabel="Translokator"),(KeyLabel="Kommunikasjon"),(KeyLabel="Si"),(KeyLabel="Team Si"),(KeyLabel="Talemeny"),(KeyLabel="hån"),(KeyLabel="Bekkenstøt"),(KeyLabel="Ass Smack"),(KeyLabel="Kutt i halsen"),(KeyLabel="Hud"),(KeyLabel="Grow Hud"),(KeyLabel="Krymp Hud"),(KeyLabel="Diverse"),(KeyLabel="Pause"),(KeyLabel="Skjermdump"),(KeyLabel="Meny"),(KeyLabel="Resultattavle"),(KeyLabel="Scoreboard veksle"),(KeyLabel="I Game Chat"),(KeyLabel="Server info"))
Labels=("Movement","Forward","Backward","Strafe Left","Strafe Right","Jump","Walk","Crouch","Strafe Toggle","Looking","Turn Left","Turn Right","Look Up","Look Down","Center View","Weapons","Fire","Alt-Fire","Throw Weapon","Best Weapon","Next Weapon","Prev Weapon","Last Weapon","Weapon Selection","Super Weapon","Shield Gun","Assault Rifle","Bio-Rifle","Shock Rifle","Link Gun","Minigun","Flak Cannon","Rocket Launcher","Lightning Rifle","Translocator","Communication","Say","Team Say","Speech Menu","Taunts","Pelvic Thrust","Ass Smack","Throat Cut","Hud","Grow Hud","Shrink Hud","Miscellaneous","Pause","Screenshot","Menu","ScoreBoard","ScoreBoard Toggle","In Game Chat","Server Info")
Header="["
; EN: Footer="] Perform this action "
Footer="] Utfør denne handlingen "
; EN: KeyConfigAliasLabel.Caption="Action"
KeyConfigAliasLabel.Caption="Handling"
; EN: KeyConfigAliasLabel2.Caption="Key 1"
KeyConfigAliasLabel2.Caption="Nøkkel 1"
; EN: KeyConfigAliasLabel3.Caption="Key 2"
KeyConfigAliasLabel3.Caption="Nøkkel 2"
; EN: KeyConfigKeyList.Hint="Select Control to config"
KeyConfigKeyList.Hint="Velg Kontroll for å konfigurere"
; EN: KeyResetButton.Caption="RESET"
KeyResetButton.Caption="NULLSTILLE"
; EN: KeyResetButton.Hint="Reset keys to default values"
KeyResetButton.Hint="Tilbakestill nøkler til standardverdier"

[Tab_DetailSettings]
; EN: DetailLevels[0]="Lowest"
DetailLevels[0]="Lavest"
; EN: DetailLevels[1]="Lower"
DetailLevels[1]="Nedre"
; EN: DetailLevels[2]="Low"
DetailLevels[2]="Lav"
; EN: DetailLevels[3]="Normal"
DetailLevels[3]="Vanlig"
; EN: DetailLevels[4]="High"
DetailLevels[4]="Høy"
; EN: DetailLevels[5]="Higher"
DetailLevels[5]="Høyere"
; EN: DetailLevels[6]="Highest"
DetailLevels[6]="Høyest"
; EN: DetailActorDetail.Caption="World Detail"
DetailActorDetail.Caption="Verdens detalj"
; EN: DetailActorDetail.Hint="Changes the level of detail used for optional geometry and effects."
DetailActorDetail.Hint="Endrer detaljnivået som brukes for valgfri geometri og effekter."
; EN: DetailBlob.Caption="Use Blob Shadows"
DetailBlob.Caption="Bruk Blob Shadows"
; EN: DetailBlob.Hint="Enable blob shadows.  Recommended for low-performance PCs."
DetailBlob.Hint="Aktiver blob-skygger. Anbefalt for PC-er med lav ytelse."
; EN: DetailCharacterDetail.Caption="Character Detail"
DetailCharacterDetail.Caption="Karakter detalj"
; EN: DetailCharacterDetail.Hint="Changes how much character detail will be rendered."
DetailCharacterDetail.Hint="Endrer hvor mye tegndetaljer som skal gjengis."
DetailCharacterShadows.Caption="Character Shadows"
; EN: DetailCharacterShadows.Hint="Enables character shadows."
DetailCharacterShadows.Hint="Aktiverer tegnskygger."
DetailCoronas.Caption="Coronas"
; EN: DetailCoronas.Hint="Enables coronas."
DetailCoronas.Hint="Aktiverer coronas."
DetailDecalStay.Caption="Decal Stay"
; EN: DetailDecalStay.Hint="Changes how long weapon scarring effects stay around."
DetailDecalStay.Hint="Endrer hvor lenge arrdannelseseffekter for våpen forblir rundt."
; EN: DetailDecals.Caption="Decals"
DetailDecals.Caption="Dekaler"
; EN: DetailDecals.Hint="Enables weapon scarring effects."
DetailDecals.Hint="Aktiverer arrdannelseseffekter for våpen."
; EN: DetailDecoLayers.Caption="Foliage"
DetailDecoLayers.Caption="Løvverk"
; EN: DetailDecoLayers.Hint="Enables grass and other decorative foliage."
DetailDecoLayers.Hint="Muliggjør gress og annet dekorativt løvverk."