[AdminPlayerList]
ColumnHeadings=("Player Name","Unique ID","IP")

[Browser_AddBuddy]
; EN: AddBuddyDesc.Caption="Add Buddy"
AddBuddyDesc.Caption="Ajouter un ami"
; EN: BuddyEntryBox.Caption="Buddy Name: "
BuddyEntryBox.Caption="Nom du copain : "
; EN: CancelButton.Caption="CANCEL"
CancelButton.Caption="ANNULER"
; EN: OkButton.Caption="OK"
OkButton.Caption="d'accord"

[Browser_BuddyList]
ColumnHeadings=("Buddy Name")

[Browser_IRC]
; EN: SystemLabel="System"
SystemLabel="Système"
; EN: LeaveChannelCaption="LEAVE CHANNEL"
LeaveChannelCaption="QUITTER LE CANAL"
; EN: LeavePrivateCaptionHead="CLOSE "
LeavePrivateCaptionHead="PROCHE "
; EN: ChooseNewNickText="Choose A New Chat Nickname"
ChooseNewNickText="Choisissez un nouveau surnom de chat"
; EN: MyBackButton.Caption="BACK"
MyBackButton.Caption="ARRIÈRE"
; EN: MyChangeNickButton.Caption="CHANGE NICK"
MyChangeNickButton.Caption="CHANGER DE PEU"

[Browser_IconKey]
; EN: DialogText.Caption="Server Icon Key"
DialogText.Caption="Clé de l'icône du serveur"
; EN: OkButton.Caption="OK"
OkButton.Caption="d'accord"

[Browser_MOTD]
VersionString="Ver."
; EN: MyBackButton.Caption="BACK"
MyBackButton.Caption="ARRIÈRE"
; EN: MyRefreshButton.Caption="REFRESH"
MyRefreshButton.Caption="RAFRAÎCHIR"
; EN: MyUpgradeButton.Caption="UPGRADE"
MyUpgradeButton.Caption="AMÉLIORER"

[Browser_OpenIP]
; EN: CancelButton.Caption="CANCEL"
CancelButton.Caption="ANNULER"
; EN: IpEntryBox.Caption="IP Address: "
IpEntryBox.Caption="Adresse IP: "
; EN: OkButton.Caption="OK"
OkButton.Caption="d'accord"
; EN: OpenIPDesc.Caption="Enter New IP Address"
OpenIPDesc.Caption="Entrez une nouvelle adresse IP"

[Browser_Page]
; EN: StartQueryString="Querying Master Server"
StartQueryString="Interroger le serveur maître"
; EN: AuthFailString="Authentication Failed"
AuthFailString="Authentification échouée"
; EN: ConnFailString="Connection Failed - Retrying"
ConnFailString="Échec de la connexion - Nouvelle tentative"
; EN: ConnTimeoutString="Connection Timed Out"
ConnTimeoutString="La connexion a expiré"
; EN: QueryCompleteString="Query Complete!"
QueryCompleteString="Requête terminée !"
; EN: RefreshCompleteString="Refresh Complete!"
RefreshCompleteString="Actualisation terminée !"
; EN: ReadyString="Ready"
ReadyString="Prêt"

[Browser_PlayersList]
ColumnHeadings=("Player Name","Score","Stats ID","Ping")

[Browser_Prefs]
; EN: ViewStatsStrings[0]="Any Servers"
ViewStatsStrings[0]="Tous les serveurs"
; EN: ViewStatsStrings[1]="Only Stats Servers"
ViewStatsStrings[1]="Seuls les serveurs de statistiques"
; EN: ViewStatsStrings[2]="No Stats Servers"
ViewStatsStrings[2]="Pas de serveurs de statistiques"
; EN: MutatorModeStrings[0]="Any Mutators"
MutatorModeStrings[0]="Tous les mutants"
; EN: MutatorModeStrings[1]="No Mutators"
MutatorModeStrings[1]="Pas de mutants"
; EN: MutatorModeStrings[2]="This Mutator"
MutatorModeStrings[2]="Ce Mutateur"
; EN: MutatorModeStrings[3]="Not This Mutator"
MutatorModeStrings[3]="Pas ce mutateur"
; EN: WeaponStayStrings[0]="Any Servers"
WeaponStayStrings[0]="Tous les serveurs"
; EN: WeaponStayStrings[1]="Only Weapon Stay Servers"
WeaponStayStrings[1]="Seuls les serveurs d'armes restent"
; EN: WeaponStayStrings[2]="No Weapon Stay Servers"
WeaponStayStrings[2]="Pas de serveurs de séjour d'armes"
; EN: TranslocatorStrings[0]="Any Servers"
TranslocatorStrings[0]="Tous les serveurs"
; EN: TranslocatorStrings[1]="Only Translocator Servers"
TranslocatorStrings[1]="Seuls les serveurs de transfert"
; EN: TranslocatorStrings[2]="No Translocator Servers"
TranslocatorStrings[2]="Aucun serveur de translocation"
; EN: CustomQuery.Caption="Custom Query"
CustomQuery.Caption="Requête personnalisée"
; EN: FilterTitle.Caption="Server Filtering Options:"
FilterTitle.Caption="Options de filtrage de serveur :"
MaxGamespeed.Caption="Max"
; EN: MinGamespeed.Caption="Game Speed Min"
MinGamespeed.Caption="Vitesse de jeu min"
; EN: MutatorModeCombo.Caption="Mutators"
MutatorModeCombo.Caption="Mutateurs"
; EN: MyBackButton.Caption="BACK"
MyBackButton.Caption="ARRIÈRE"
; EN: MyKeyButton.Caption="ICON KEY"
MyKeyButton.Caption="CLÉ ICNE"
; EN: NoBotServersCheckBox.Caption="No Servers With Bots"
NoBotServersCheckBox.Caption="Pas de serveurs avec des bots"
; EN: NoEmptyCheckBox.Caption="No Empty Servers"
NoEmptyCheckBox.Caption="Pas de serveurs vides"
; EN: NoFullCheckBox.Caption="No Full Servers"
NoFullCheckBox.Caption="Pas de serveurs complets"
; EN: NoPasswdCheckBox.Caption="No Passworded Servers"
NoPasswdCheckBox.Caption="Pas de serveurs avec mot de passe"
; EN: OnlyStandardCheckBox.Caption="Only Standard Servers"
OnlyStandardCheckBox.Caption="Serveurs standards uniquement"
; EN: StatsViewCombo.Caption="Stats Servers"
StatsViewCombo.Caption="Serveurs de statistiques"
; EN: TranslocatorCombo.Caption="Translocator"
TranslocatorCombo.Caption="Translocateur"
; EN: WeaponStayCombo.Caption="WeaponStay"
WeaponStayCombo.Caption="ArmeSéjour"

[Browser_RulesList]
; EN: TrueString="Enabled"
TrueString="Activée"
; EN: FalseString="Disabled"
FalseString="Désactivée"
; EN: ServerModeString="Server Mode"
ServerModeString="Mode serveur"
; EN: DedicatedString="Dedicated"
DedicatedString="Dédié"
; EN: NonDedicatedString="Non-Dedicated"
NonDedicatedString="Non dédié"
; EN: AdminNameString="Server Admin"
AdminNameString="Administrateur du serveur"
; EN: AdminEmailString="Admin Email"
AdminEmailString="Courriel de l'administrateur"
; EN: PasswordString="Requires Password"
PasswordString="Nécessite un mot de passe"
; EN: GameStatsString="UT2004 Stats"
GameStatsString="Statistiques UT2004"
; EN: GameSpeedString="Game Speed"
GameSpeedString="Vitesse de jeu"
; EN: MutatorString="Mutator"
MutatorString="Mutateur"
; EN: BalanceTeamsString="Bots Balance Teams"
BalanceTeamsString="Equipes d'équilibrage des bots"
; EN: PlayersBalanceTeamsString="Balance Teams"
PlayersBalanceTeamsString="Equilibrer les équipes"
; EN: FriendlyFireString="Friendly Fire"
FriendlyFireString="Tir ami"
; EN: GoalScoreString="Goal Score"
GoalScoreString="Score de but"
; EN: TimeLimitString="Time Limit"
TimeLimitString="Limite de temps"
; EN: MinPlayersString="Minimum Players (bots)"
MinPlayersString="Joueurs minimum (bots)"
; EN: TranslocatorString="Translocator"
TranslocatorString="Translocateur"
; EN: WeaponStayString="Weapons Stay"
WeaponStayString="Les armes restent"
ColumnHeadings=("Setting","Value")

[Browser_ServerListPageBase]
; EN: AddFavoriteButton.Caption="ADD FAVORITE"
AddFavoriteButton.Caption="AJOUTER FAVORI"
; EN: BackButton.Caption="BACK"
BackButton.Caption="ARRIÈRE"
; EN: JoinButton.Caption="JOIN"
JoinButton.Caption="REJOINDRE"
; EN: RefreshButton.Caption="REFRESH LIST"
RefreshButton.Caption="RAFRAÎCHIR LA LISTE"
; EN: SpectateButton.Caption="SPECTATE"
SpectateButton.Caption="SPECTER"

[Browser_ServerListPageBuddy]
; EN: AddBuddyCaption="ADD BUDDY"
AddBuddyCaption="AJOUTER UN AMI"
; EN: RemoveBuddyCaption="REMOVE BUDDY"
RemoveBuddyCaption="SUPPRIMER L'AMI"

[Browser_ServerListPageFavorites]
; EN: RemoveFavoriteCaption="REMOVE FAVORITE"
RemoveFavoriteCaption="SUPPRIMER LE FAVORI"
; EN: AddIPCaption="ADD IP"
AddIPCaption="AJOUTER IP"
; EN: RePingCaption="RE-PING LIST"
RePingCaption="LISTE DE REPING"

[Browser_ServerListPageMS]
; EN: QueryFinHead="Query Complete! Received: "
QueryFinHead="Requête terminée ! A reçu: "
; EN: QueryFinTail=" Servers"
QueryFinTail=" Les serveurs"
; EN: PingRecvString="Pinging Servers"
PingRecvString="Serveurs de ping"
; EN: MustUpgradeString="Upgrade available. Please refresh the News page."
MustUpgradeString="Mise à niveau disponible. Veuillez actualiser la page Actualités."
; EN: RefreshFinHead="Pinging Complete! "
RefreshFinHead="Ping terminé ! "
; EN: RefreshFinMid=" Servers, "
RefreshFinMid=" Les serveurs, "
; EN: RefreshFinTail=" Players"
RefreshFinTail=" Joueurs"
; EN: RePingServersCaption="RE-PING LIST"
RePingServersCaption="LISTE DE REPING"
; EN: RefreshCaption="REFRESH LIST"
RefreshCaption="RAFRAÎCHIR LA LISTE"

[Browser_ServerListPageMSCustom]
; EN: MyGameTypeLabel.Caption="Game Type"
MyGameTypeLabel.Caption="Type de jeu"

[Browser_ServersList]
IconDescriptions=("Passworded","Stats Enabled","Latest Version","Listen Server","Instagib","Standard Server","UT Classic")
ColumnHeadings=(,"Server Name","Map","Players","Ping")

[DefaultCrosshairs]
; EN: Crosshair=((FriendlyName="Cross (1)"),(FriendlyName="Cross (2)"),(FriendlyName="Cross (3)"),(FriendlyName="Cross (4)"),(FriendlyName="Cross (5)"),(FriendlyName="Dot"),(FriendlyName="Pointer"),(FriendlyName="Triad (1)"),(FriendlyName="Triad (2)"),(FriendlyName="Triad (3)"),(FriendlyName="Bracket (1)"),(FriendlyName="Bracket (2)"),(FriendlyName="Circle (1)"),(FriendlyName="Circle (2)"))
Crosshair=((FriendlyName="Croix (1)"),(FriendlyName="Croix (2)"),(FriendlyName="Croix (3)"),(FriendlyName="Croix (4)"),(FriendlyName="Croix (5)"),(FriendlyName="Point"),(FriendlyName="Aiguille"),(FriendlyName="Triade (1)"),(FriendlyName="Triade (2)"),(FriendlyName="Triade (3)"),(FriendlyName="Support (1)"),(FriendlyName="Support (2)"),(FriendlyName="Cercle (1)"),(FriendlyName="Cercle (2)"))

[ExtendedConsole]
; EN: AddedCurrentHead="Added Server:"
AddedCurrentHead="Serveur ajouté :"
; EN: AddedCurrentTail="To Favorites!"
AddedCurrentTail="aux favoris !"
; EN: ServerFullMsg="Server is now full"
ServerFullMsg="Le serveur est maintenant plein"
; EN: SMStateName[0]="Speech Menu"
SMStateName[0]="Menu de la parole"
; EN: SMStateName[1]="Voice Chat"
SMStateName[1]="Chat vocal"
; EN: SMStateName[2]="Acknowledge"
SMStateName[2]="Accuser réception"
; EN: SMStateName[3]="Friendly Fire"
SMStateName[3]="Tir ami"
; EN: SMStateName[4]="Order"
SMStateName[4]="Commander"
; EN: SMStateName[5]="Other"
SMStateName[5]="Autre"
; EN: SMStateName[6]="Taunt"
SMStateName[6]="Raillerie"
; EN: SMStateName[7]="Taunt Anim"
SMStateName[7]="L'anime de raillerie"
; EN: SMStateName[8]="Player Select"
SMStateName[8]="Sélection du joueur"
; EN: SMChannelOptions[0]="Join"
SMChannelOptions[0]="Rejoindre"
; EN: SMChannelOptions[1]="Leave"
SMChannelOptions[1]="Laisser"
; EN: SMChannelOptions[2]="Talk"
SMChannelOptions[2]="Parlez"
; EN: SMAllString="[ALL]"
SMAllString="[TOUS]"
; EN: SMMoreString="[MORE]"
SMMoreString="[SUITE]"

[GUIController]
; EN: DesignModeHints=((Key=" Key",Description="                                Description"),(Key=" (F1)",Description="                                View this help screen"),(Key=" Ctrl + Alt + D",Description="                      Toggles design mode"),(Key=" Ctrl + Alt + E",Description="                      Toggles property editor mode"),(Key=" [Ctrl +] H",Description="                          Toggles active/focused info"),(Key=" [Ctrl +] I",Description="                          Toggle interactive mode"),(Key=" [Ctrl +] P",Description="                          Toggles full MenuOwner chains for active/focused"),(Key=" [Ctrl +] C",Description="                          Copy MoveControl position to clipboard"),(Key=" [Ctrl +] X",Description="                          Export MoveControl to clipboard"),(Key=" [Ctrl +] U",Description="                          Refresh the property window in the designer"),(Key=" [Ctrl +] Up/Down/Left/Right",Description="         Reposition MoveControl using arrow keys"),(Key=" [Ctrl +] +/-",Description="                        Resize MoveControl vertically"),(Key=" [Ctrl +] Num+/Num-",Description="                  Resize selected component horizontally"),(Key=" [Ctrl +] WheelUp",Description="                    Set MoveControl to MoveControl's menuowner"),(Key=" [Ctrl +] WheenDown",Description="                  Set MoveControl to MoveControl's focused control"),(Key=" [(Ctrl + Alt) +] MouseX/Y+LMouse",Description="    Reposition MoveControl using mouse"),(Key=" (Shift)",Description="                             Hides all design mode indicators"),(Key=" (Ctrl + Alt)",Description="                        View focus chain"),(Key=" [Ctrl +] Tab",Description="                        Select new MoveControl"),(Key=" [Ctrl +] LMouse",Description="                     Select new MoveControl"))
DesignModeHints=((Key=" Clé",Description="                                La description"),(Key=" (F1)",Description="                                Afficher cet écran d'aide"),(Key=" Ctrl + Alt + D",Description="                      Bascule en mode conception"),(Key=" Ctrl + Alt + E",Description="                      Bascule en mode éditeur de propriétés"),(Key=" [Ctrl +] H",Description="                          Bascule les informations actives/concentrées"),(Key=" [Ctrl +] je",Description="                          Basculer en mode interactif"),(Key=" [Ctrl +]P",Description="                          Bascule les chaînes complètes de MenuOwner pour actif/concentré"),(Key=" [Ctrl +] C",Description="                          Copier la position de MoveControl dans le presse-papiers"),(Key=" [Ctrl +] X",Description="                          Exporter MoveControl vers le presse-papiers"),(Key=" [Ctrl +] U",Description="                          Actualiser la fenêtre des propriétés dans le concepteur"),(Key=" [Ctrl +] Haut/Bas/Gauche/Droite",Description="         Repositionner MoveControl à l'aide des touches fléchées"),(Key=" [Ctrl +] +/-",Description="                        Redimensionner MoveControl verticalement"),(Key=" [Ctrl +] Num+/Num-",Description="                  Redimensionner le composant sélectionné horizontalement"),(Key=" [Ctrl +] Roue vers le haut",Description="                    Définissez MoveControl sur le propriétaire du menu de MoveControl"),(Key=" [Ctrl +] WheenDown",Description="                  Définissez MoveControl sur le contrôle ciblé de MoveControl"),(Key=" [(Ctrl + Alt) +] SourisX/Y+L Souris",Description="    Repositionner MoveControl à l'aide de la souris"),(Key=" (Décalage)",Description="                             Masque tous les indicateurs de mode de conception"),(Key=" (Ctrl + Alt)",Description="                        Voir la chaîne de mise au point"),(Key=" Onglet [Ctrl +]",Description="                        Sélectionnez un nouveau MoveControl"),(Key=" [Ctrl +] LMouse",Description="                     Sélectionnez un nouveau MoveControl"))

[GUIQuestionPage]
ButtonNames=("Ok","Cancel","Retry","Continue","Yes","No","Abort","Ignore")

[HudBTeamDeathMatch]
; EN: LinkEstablishedMessage="LINK ESTABLISHED"
LinkEstablishedMessage="LIEN ÉTABLI"

[HudBase]
InstructionFontName="UT2003Fonts.jFontMono800x600"
; EN: LevelActionLoading="LOADING..."
LevelActionLoading="CHARGEMENT EN COURS..."
; EN: LevelActionPaused="PAUSED"
LevelActionPaused="EN PAUSE"
LevelActionFontName="UT2003Fonts.FontMedium"
; EN: WonMatchPostFix=" won the match!"
WonMatchPostFix=" A remporté le match!"
; EN: WaitingToSpawn="Press [Fire] to join the match!"
WaitingToSpawn="Appuyez sur [Feu] pour rejoindre le match !"
; EN: AtMenus="Press [ESC] to close menu"
AtMenus="Appuyez sur [ESC] pour fermer le menu"
; EN: YouveWonTheMatch="You've won the match!"
YouveWonTheMatch="Vous avez gagné le match !"
; EN: YouveLostTheMatch="You've lost the match."
YouveLostTheMatch="Vous avez perdu le match."
; EN: NowViewing="Now viewing"
NowViewing="Affichage en cours"
; EN: ScoreText="Score"
ScoreText="But"
; EN: InitialViewingString="Press Fire to View a different Player"
InitialViewingString="Appuyez sur Fire pour voir un autre joueur"
ProgressFontName="UT2003Fonts.FontMedium"
FontArrayNames[0]="UT2003Fonts.FontEurostile37"
FontArrayNames[1]="UT2003Fonts.FontEurostile29"
FontArrayNames[2]="UT2003Fonts.FontEurostile24"
FontArrayNames[3]="UT2003Fonts.FontEurostile21"
; EN: FontArrayNames[4]="UT2003Fonts.FontEurostile17"
FontArrayNames[4]="UT2003Polices.FontEurostile17"
FontArrayNames[5]="UT2003Fonts.FontEurostile14"
; EN: FontArrayNames[6]="UT2003Fonts.FontEurostile12"
FontArrayNames[6]="UT2003Polices.FontEurostile12"
FontArrayNames[7]="UT2003Fonts.FontEurostile9"
FontArrayNames[8]="UT2003Fonts.FontSmallText"

[HudCTeamDeathMatch]
; EN: LinkEstablishedMessage="LINK ESTABLISHED"
LinkEstablishedMessage="LIEN ÉTABLI"

[IRCLink]
; EN: InvalidAddressText="Invalid server address, aborting."
InvalidAddressText="Adresse de serveur invalide, abandon."
; EN: ErrorBindingText="Error binding local port, aborting."
ErrorBindingText="Erreur de liaison du port local, abandon."
; EN: ResolveFailedText="Failed to resolve server address, aborting."
ResolveFailedText="Échec de la résolution de l'adresse du serveur, abandon."
; EN: ConnectedText="Connected."
ConnectedText="Connecté."
; EN: ConnectingToText="Connecting to"
ConnectingToText="Connexion à"
; EN: TimeOutError="Timeout connecting to server."
TimeOutError="Délai d'attente de connexion au serveur."
; EN: InviteString="invites you to join"
InviteString="vous invite à rejoindre"
; EN: NickInUseText="Nickname Already In Use"
NickInUseText="Pseudo déjà utilisé"
; EN: NickInvalidText="Nickname Is Invalid"
NickInvalidText="Le surnom n'est pas valide"

[IRC_NewNick]
; EN: NewNickEntry.Caption="New Nickname: "
NewNickEntry.Caption="Nouveau surnom : "
; EN: OkButton.Caption="OK"
OkButton.Caption="d'accord"

[IRC_Page]
; EN: HasLeftText="has left"
HasLeftText="est parti"
; EN: HasJoinedText="has joined"
HasJoinedText="a rejoint"
; EN: WasKickedByText="was kicked by"
WasKickedByText="a été frappé par"
; EN: NowKnownAsText="is now known as"
NowKnownAsText="est maintenant connu sous le nom"
; EN: QuitText="Quit"
QuitText="Quitter"
; EN: SetsModeText="sets mode"
SetsModeText="définit le mode"
; EN: NewTopicText="Topic"
NewTopicText="Sujet"

[IRC_System]
; EN: NotInAChannelText="Not in a channel!"
NotInAChannelText="Pas dans une chaîne !"
; EN: KickedFromText="You were kicked from"
KickedFromText="Vous avez été expulsé de"
; EN: ByText="by"
ByText="par"
; EN: IsAwayText="is away"
IsAwayText="est loin"
; EN: ConnectText="CONNECT"
ConnectText="RELIER"
; EN: DisconnectText="DISCONNECT"
DisconnectText="DÉCONNEXION"
; EN: MyChannelLabel.Caption="Channel"
MyChannelLabel.Caption="Canaliser"
; EN: MyJoinChannelButton.Caption="JOIN CHANNEL"
MyJoinChannelButton.Caption="REJOINDRE LA CHAINE"
; EN: MyRemoveChannelButton.Caption="REMOVE CHANNEL"
MyRemoveChannelButton.Caption="SUPPRIMER LE CANAL"
; EN: MyRemoveServerButton.Caption="REMOVE SERVER"
MyRemoveServerButton.Caption="SUPPRIMER LE SERVEUR"
; EN: MyServerLabel.Caption="Server"
MyServerLabel.Caption="Serveur"

[JoeTest]
; EN: TestButton1.Caption="Close Window"
TestButton1.Caption="Fermer la fenêtre"
; EN: TitleText.Caption="Joe's Amazing Test GUI"
TitleText.Caption="L'incroyable interface graphique de test de Joe"

[JoeTestPanelA]
TestButtonA.Caption="Wow"
; EN: TestButtonB.Caption="Damn"
TestButtonB.Caption="Mince"

[ScoreBoardDeathMatch]
; EN: RankText="RANK"
RankText="RANG"
; EN: PlayerText="PLAYER"
PlayerText="JOUEUR"
; EN: PointsText="SCORE"
PointsText="BUT"
; EN: TimeText="TIME:"
TimeText="TEMPS:"
; EN: PingText="PING:"
PingText="PING :"
; EN: PLText="P/L:"
PLText="PL:"
; EN: DeathsText="DEATHS"
DeathsText="DES MORTS"
; EN: AdminText="ADMIN"
AdminText="ADMINISTRER"
; EN: NetText="NET"
NetText="RAPPORTER"
; EN: FooterText="Elapsed Time:"
FooterText="Temps écoulé:"
; EN: MatchIDText="UT2004 Stats Match ID"
MatchIDText="ID de correspondance des statistiques UT2004"
; EN: OutText="OUT"
OutText="DEHORS"
; EN: OutFireText="   You are OUT. Fire to view other players."
OutFireText="   Tu es dehors. Tirez pour voir les autres joueurs."
; EN: ReadyText="READY"
ReadyText="PRÊT"
; EN: NotReadyText="NOT RDY"
NotReadyText="PAS RDY"
SkillLevel[0]="NOVICE"
; EN: SkillLevel[1]="AVERAGE"
SkillLevel[1]="MOYENNE"
; EN: SkillLevel[2]="EXPERIENCED"
SkillLevel[2]="EXPÉRIMENTÉ"
; EN: SkillLevel[3]="SKILLED"
SkillLevel[3]="QUALIFIÉ"
; EN: SkillLevel[4]="ADEPT"
SkillLevel[4]="EXPERT"
; EN: SkillLevel[5]="MASTERFUL"
SkillLevel[5]="MAÎTRISANT"
; EN: SkillLevel[6]="INHUMAN"
SkillLevel[6]="INHUMAIN"
; EN: SkillLevel[7]="GODLIKE"
SkillLevel[7]="DIVIN"
; EN: MaxLives="MAX LIVES:"
MaxLives="MAX VIES :"
; EN: FragLimit="FRAG LIMIT:"
FragLimit="LIMITE DE FRAG :"
FPH="PPH"
; EN: GameType="GAME"
GameType="JEU"
; EN: MapName=" in "
MapName=" dans "
; EN: Restart="   You were killed. Press Fire to respawn!"
Restart="   Vous avez été tué. Appuyez sur Feu pour réapparaître !"
; EN: Continue=" Press [Fire] to continue!"
Continue=" Appuyez sur [Feu] pour continuer !"
; EN: Ended="The match has ended."
Ended="Le match est terminé."
; EN: TimeLimit="REMAINING TIME:"
TimeLimit="TEMPS RESTANT:"
Spacer=" "

[ScoreBoardTeamDeathMatch]
; EN: FragLimit="SCORE LIMIT:"
FragLimit="LIMITE DE SCORE :"

[ServerBrowser]
; EN: MutantTypeName="Mutant"
MutantTypeName="mutant"
InvasionTypeName="Invasion"
; EN: LMSTypeName="Last Man Standing"
LMSTypeName="Dernier homme debout"
MutantType="xMutantGame"
InvasionType="Invasion"
; EN: LMSType="xLastManStanding"
LMSType="xLastManDebout"
; EN: MyBRServerListPage.PageCaption="Bombing Run"
MyBRServerListPage.PageCaption="Bombardement"
; EN: MyBuddiesPage.PageCaption="Buddies"
MyBuddiesPage.PageCaption="Copains"
; EN: MyCTFServerListPage.PageCaption="CTF"
MyCTFServerListPage.PageCaption="FCT"
; EN: MyCustomServerListPage.PageCaption="Custom"
MyCustomServerListPage.PageCaption="Personnalisé"
MyDMServerListPage.PageCaption="DM"
MyDomServerListPage.PageCaption="Double Dom"
; EN: MyFavoritesPage.PageCaption="Favorites"
MyFavoritesPage.PageCaption="Favoris"
; EN: MyIRCPage.PageCaption="Chat"
MyIRCPage.PageCaption="Discuter"
MyLANPage.PageCaption="LAN"
; EN: MyMOTDPage.PageCaption="News"
MyMOTDPage.PageCaption="Nouvelles"
; EN: MyPrefsPage.PageCaption="Filter"
MyPrefsPage.PageCaption="Filtre"
; EN: MyTDMServerListPage.PageCaption="Team DM"
MyTDMServerListPage.PageCaption="DM de l'équipe"
; EN: ServerBrowserHeader.Caption="Server Browser"
ServerBrowserHeader.Caption="Navigateur du serveur"

[Tab_AdminPlayerList]
; EN: AdminPlayerBan.Caption="Ban"
AdminPlayerBan.Caption="Interdire"
; EN: AdminPlayerBan.Hint="Ban this player"
AdminPlayerBan.Hint="Bannir ce joueur"
; EN: AdminPlayerKick.Caption="Kick"
AdminPlayerKick.Caption="Coup"
; EN: AdminPlayerKick.Hint="Kick this Player"
AdminPlayerKick.Hint="Kick ce joueur"

[Tab_AudioSettings]
; EN: AudioModes[0]="Software 3D Audio"
AudioModes[0]="Logiciel Audio 3D"
; EN: AudioModes[1]="Hardware 3D Audio"
AudioModes[1]="Matériel audio 3D"
; EN: AudioModes[2]="Hardware 3D Audio + EAX"
AudioModes[2]="Matériel Audio 3D + EAX"
; EN: AudioModes[3]="Safe Mode"
AudioModes[3]="Mode sans échec"
; EN: VoiceModes[0]="All"
VoiceModes[0]="Tous"
; EN: VoiceModes[1]="No auto-taunts"
VoiceModes[1]="Pas de railleries automatiques"
; EN: VoiceModes[2]="No taunts"
VoiceModes[2]="Pas de railleries"
; EN: VoiceModes[3]="None"
VoiceModes[3]="Rien"
; EN: AnnounceModes[0]="None"
AnnounceModes[0]="Rien"
AnnounceModes[1]="Minimal"
; EN: AnnounceModes[2]="All"
AnnounceModes[2]="Tous"
; EN: AudioAnnounce.Caption="Announcements"
AudioAnnounce.Caption="Annonces"
; EN: AudioAnnounce.Hint="Adjusts the amount of in-game announcements."
AudioAnnounce.Hint="Ajuste le nombre d'annonces dans le jeu."
; EN: AudioAnnouncerPack.Caption="Announcer Voice"
AudioAnnouncerPack.Caption="Voix de l'annonceur"
; EN: AudioAnnouncerPack.Hint="Select the Announcer for tonight's game."
AudioAnnouncerPack.Hint="Sélectionnez l'annonceur pour le match de ce soir."
; EN: AudioAutoTaunt.Caption="Auto-Taunt"
AudioAutoTaunt.Caption="Provocation automatique"
; EN: AudioAutoTaunt.Hint="Enables your in-game player to automatically taunt opponents."
AudioAutoTaunt.Hint="Permet à votre joueur en jeu de narguer automatiquement ses adversaires."
; EN: AudioEffectsVolumeLabel.Caption="Effects Volume"
AudioEffectsVolumeLabel.Caption="Volume des effets"
; EN: AudioEffectsVolumeSlider.Hint="Changes the volume of all in game sound effects."
AudioEffectsVolumeSlider.Hint="Modifie le volume de tous les effets sonores du jeu."
; EN: AudioLowDetail.Caption="Low Sound Detail"
AudioLowDetail.Caption="Faible niveau sonore"
; EN: AudioLowDetail.Hint="Lowers quality of sound."
AudioLowDetail.Hint="Baisse la qualité du son."
; EN: AudioMatureTaunts.Caption="Mature Taunts"
AudioMatureTaunts.Caption="provocations matures"
; EN: AudioMatureTaunts.Hint="Enables off-color commentary."
AudioMatureTaunts.Hint="Active les commentaires hors couleur."
; EN: AudioMessageBeep.Caption="Message Beep"
AudioMessageBeep.Caption="Bip de message"
; EN: AudioMessageBeep.Hint="Enables a beep when receiving a text message from other players."
AudioMessageBeep.Hint="Active un bip lors de la réception d'un message texte d'autres joueurs."
; EN: AudioMode.Caption="Audio Mode"
AudioMode.Caption="Mode audio"
; EN: AudioMode.Hint="Changes the audio system mode."
AudioMode.Hint="Modifie le mode du système audio."
; EN: AudioMusicVolumeLabel.Caption="Music Volume"
AudioMusicVolumeLabel.Caption="Volume de la musique"
; EN: AudioMusicVolumeSlider.Hint="Changes the volume of the background music."
AudioMusicVolumeSlider.Hint="Modifie le volume de la musique de fond."
; EN: AudioPlayVoices.Caption="Play Voices"
AudioPlayVoices.Caption="Jouer des voix"
; EN: AudioPlayVoices.Hint="Defines the types of voice messages to play."
AudioPlayVoices.Hint="Définit les types de messages vocaux à lire."
; EN: AudioReverseStereo.Caption="Reverse Stereo"
AudioReverseStereo.Caption="Stéréo inversé"
; EN: AudioReverseStereo.Hint="Reverses the left and right audio channels."
AudioReverseStereo.Hint="Inverse les canaux audio gauche et droit."
; EN: AudioVoiceVolumeLabel.Caption="Announcer Volume"
AudioVoiceVolumeLabel.Caption="Volume de l'annonceur"
; EN: AudioVoiceVolumeSlider.Hint="Changes the volume of all in game voice messages."
AudioVoiceVolumeSlider.Hint="Modifie le volume de tous les messages vocaux du jeu."

[Tab_ControlSettings]
; EN: Bindings=((KeyLabel="Movement"),(KeyLabel="Forward"),(KeyLabel="Backward"),(KeyLabel="Strafe Left"),(KeyLabel="Strafe Right"),(KeyLabel="Jump"),(KeyLabel="Walk"),(KeyLabel="Crouch"),(KeyLabel="Strafe Toggle"),(KeyLabel="Looking"),(KeyLabel="Turn Left"),(KeyLabel="Turn Right"),(KeyLabel="Look Up"),(KeyLabel="Look Down"),(KeyLabel="Center View"),(KeyLabel="Weapons"),(KeyLabel="Fire"),(KeyLabel="Alt-Fire"),(KeyLabel="Throw Weapon"),(KeyLabel="Best Weapon"),(KeyLabel="Next Weapon"),(KeyLabel="Prev Weapon"),(KeyLabel="Last Weapon"),(KeyLabel="Weapon Selection"),(KeyLabel="Super Weapon"),(KeyLabel="Shield Gun"),(KeyLabel="Assault Rifle"),(KeyLabel="Bio-Rifle"),(KeyLabel="Shock Rifle"),(KeyLabel="Link Gun"),(KeyLabel="Minigun"),(KeyLabel="Flak Cannon"),(KeyLabel="Rocket Launcher"),(KeyLabel="Lightning Rifle"),(KeyLabel="Translocator"),(KeyLabel="Communication"),(KeyLabel="Say"),(KeyLabel="Team Say"),(KeyLabel="Speech Menu"),(KeyLabel="Taunts"),(KeyLabel="Pelvic Thrust"),(KeyLabel="Ass Smack"),(KeyLabel="Throat Cut"),(KeyLabel="Hud"),(KeyLabel="Grow Hud"),(KeyLabel="Shrink Hud"),(KeyLabel="Miscellaneous"),(KeyLabel="Pause"),(KeyLabel="Screenshot"),(KeyLabel="Menu"),(KeyLabel="ScoreBoard"),(KeyLabel="ScoreBoard Toggle"),(KeyLabel="In Game Chat"),(KeyLabel="Server Info"))
Bindings=((KeyLabel="Mouvement"),(KeyLabel="Effronté"),(KeyLabel="En arrière"),(KeyLabel="Mitrailler à gauche"),(KeyLabel="Mitrailler à droite"),(KeyLabel="Saut"),(KeyLabel="Marche"),(KeyLabel="Accroupissement"),(KeyLabel="Bascule de mitraillage"),(KeyLabel="En regardant"),(KeyLabel="Tourner à gauche"),(KeyLabel="Tournez à droite"),(KeyLabel="Chercher"),(KeyLabel="Baisser les yeux"),(KeyLabel="Vue centrale"),(KeyLabel="Armes"),(KeyLabel="Feu"),(KeyLabel="Alt-Feu"),(KeyLabel="Lancer l'arme"),(KeyLabel="Meilleure arme"),(KeyLabel="Prochaine arme"),(KeyLabel="Arme précédente"),(KeyLabel="Dernière arme"),(KeyLabel="Sélection d'armes"),(KeyLabel="Super arme"),(KeyLabel="Bouclier Pistolet"),(KeyLabel="Fusil d'assaut"),(KeyLabel="Bio-fusil"),(KeyLabel="Fusil de choc"),(KeyLabel="Lien Pistolet"),(KeyLabel="Minigun"),(KeyLabel="Canon anti-aérien"),(KeyLabel="Lance-roquettes"),(KeyLabel="Fusil éclair"),(KeyLabel="Translocateur"),(KeyLabel="la communication"),(KeyLabel="Dire"),(KeyLabel="L'équipe dit"),(KeyLabel="Menu de la parole"),(KeyLabel="railleries"),(KeyLabel="Poussée pelvienne"),(KeyLabel="cul claque"),(KeyLabel="Coupe de gorge"),(KeyLabel="Hud"),(KeyLabel="Cultivez Hud"),(KeyLabel="Rétrécir Hud"),(KeyLabel="Divers"),(KeyLabel="Pause"),(KeyLabel="Capture d'écran"),(KeyLabel="Menu"),(KeyLabel="Tableau des scores"),(KeyLabel="Tableau de bord Basculer"),(KeyLabel="Dans le chat de jeu"),(KeyLabel="Informations sur le serveur"))
Labels=("Movement","Forward","Backward","Strafe Left","Strafe Right","Jump","Walk","Crouch","Strafe Toggle","Looking","Turn Left","Turn Right","Look Up","Look Down","Center View","Weapons","Fire","Alt-Fire","Throw Weapon","Best Weapon","Next Weapon","Prev Weapon","Last Weapon","Weapon Selection","Super Weapon","Shield Gun","Assault Rifle","Bio-Rifle","Shock Rifle","Link Gun","Minigun","Flak Cannon","Rocket Launcher","Lightning Rifle","Translocator","Communication","Say","Team Say","Speech Menu","Taunts","Pelvic Thrust","Ass Smack","Throat Cut","Hud","Grow Hud","Shrink Hud","Miscellaneous","Pause","Screenshot","Menu","ScoreBoard","ScoreBoard Toggle","In Game Chat","Server Info")
Header="["
; EN: Footer="] Perform this action "
Footer="] Effectuez cette action "
; EN: KeyConfigAliasLabel.Caption="Action"
KeyConfigAliasLabel.Caption="action"
; EN: KeyConfigAliasLabel2.Caption="Key 1"
KeyConfigAliasLabel2.Caption="Clé 1"
; EN: KeyConfigAliasLabel3.Caption="Key 2"
KeyConfigAliasLabel3.Caption="Clé 2"
; EN: KeyConfigKeyList.Hint="Select Control to config"
KeyConfigKeyList.Hint="Sélectionnez Contrôle à configurer"
; EN: KeyResetButton.Caption="RESET"
KeyResetButton.Caption="RÉINITIALISER"
; EN: KeyResetButton.Hint="Reset keys to default values"
KeyResetButton.Hint="Réinitialiser les clés aux valeurs par défaut"

[Tab_DetailSettings]
; EN: DetailLevels[0]="Lowest"
DetailLevels[0]="Le plus bas"
; EN: DetailLevels[1]="Lower"
DetailLevels[1]="Inférieur"
; EN: DetailLevels[2]="Low"
DetailLevels[2]="Meugler"
DetailLevels[3]="Normal"