[AdminPlayerList]
ColumnHeadings=("Player Name","Unique ID","IP")

[Browser_AddBuddy]
; EN: AddBuddyDesc.Caption="Add Buddy"
AddBuddyDesc.Caption="Add Buddy-t"
; EN: BuddyEntryBox.Caption="Buddy Name: "
BuddyEntryBox.Caption="Barát neve: "
; EN: CancelButton.Caption="CANCEL"
CancelButton.Caption="MEGSZÜNTETI"
; EN: OkButton.Caption="OK"
OkButton.Caption="rendben"

[Browser_BuddyList]
ColumnHeadings=("Buddy Name")

[Browser_IRC]
; EN: SystemLabel="System"
SystemLabel="Rendszer"
; EN: LeaveChannelCaption="LEAVE CHANNEL"
LeaveChannelCaption="HAGYJA EL A CSATORNÁT"
; EN: LeavePrivateCaptionHead="CLOSE "
LeavePrivateCaptionHead="BEZÁRÁS "
; EN: ChooseNewNickText="Choose A New Chat Nickname"
ChooseNewNickText="Válasszon Új csevegési becenevet"
; EN: MyBackButton.Caption="BACK"
MyBackButton.Caption="VISSZA"
; EN: MyChangeNickButton.Caption="CHANGE NICK"
MyChangeNickButton.Caption="CSERE NICKET"

[Browser_IconKey]
; EN: DialogText.Caption="Server Icon Key"
DialogText.Caption="Szerver ikon kulcs"
; EN: OkButton.Caption="OK"
OkButton.Caption="rendben"

[Browser_MOTD]
VersionString="Ver."
; EN: MyBackButton.Caption="BACK"
MyBackButton.Caption="VISSZA"
; EN: MyRefreshButton.Caption="REFRESH"
MyRefreshButton.Caption="FRISSÍTÉS"
; EN: MyUpgradeButton.Caption="UPGRADE"
MyUpgradeButton.Caption="FRISSÍTÉS"

[Browser_OpenIP]
; EN: CancelButton.Caption="CANCEL"
CancelButton.Caption="MEGSZÜNTETI"
; EN: IpEntryBox.Caption="IP Address: "
IpEntryBox.Caption="IP-cím: "
; EN: OkButton.Caption="OK"
OkButton.Caption="rendben"
; EN: OpenIPDesc.Caption="Enter New IP Address"
OpenIPDesc.Caption="Írja be az új IP-címet"

[Browser_Page]
; EN: StartQueryString="Querying Master Server"
StartQueryString="Master Server lekérdezése"
; EN: AuthFailString="Authentication Failed"
AuthFailString="Sikertelen volt a hitelesítés"
; EN: ConnFailString="Connection Failed - Retrying"
ConnFailString="A csatlakozás sikertelen – Újrapróbálkozás"
; EN: ConnTimeoutString="Connection Timed Out"
ConnTimeoutString="Kapcsolat időtúllépés"
; EN: QueryCompleteString="Query Complete!"
QueryCompleteString="Lekérdezés kész!"
; EN: RefreshCompleteString="Refresh Complete!"
RefreshCompleteString="Frissítés kész!"
; EN: ReadyString="Ready"
ReadyString="Kész"

[Browser_PlayersList]
ColumnHeadings=("Player Name","Score","Stats ID","Ping")

[Browser_Prefs]
; EN: ViewStatsStrings[0]="Any Servers"
ViewStatsStrings[0]="Bármilyen szerver"
; EN: ViewStatsStrings[1]="Only Stats Servers"
ViewStatsStrings[1]="Csak statisztika szerverek"
; EN: ViewStatsStrings[2]="No Stats Servers"
ViewStatsStrings[2]="Nincsenek statisztikai kiszolgálók"
; EN: MutatorModeStrings[0]="Any Mutators"
MutatorModeStrings[0]="Bármilyen Mutátor"
; EN: MutatorModeStrings[1]="No Mutators"
MutatorModeStrings[1]="Nincsenek mutátorok"
; EN: MutatorModeStrings[2]="This Mutator"
MutatorModeStrings[2]="Ez a Mutátor"
; EN: MutatorModeStrings[3]="Not This Mutator"
MutatorModeStrings[3]="Nem ez a Mutátor"
; EN: WeaponStayStrings[0]="Any Servers"
WeaponStayStrings[0]="Bármilyen szerver"
; EN: WeaponStayStrings[1]="Only Weapon Stay Servers"
WeaponStayStrings[1]="Csak Weapon Stay szerverek"
; EN: WeaponStayStrings[2]="No Weapon Stay Servers"
WeaponStayStrings[2]="Nincsenek fegyvertartó kiszolgálók"
; EN: TranslocatorStrings[0]="Any Servers"
TranslocatorStrings[0]="Bármilyen szerver"
; EN: TranslocatorStrings[1]="Only Translocator Servers"
TranslocatorStrings[1]="Csak Translocator szerverek"
; EN: TranslocatorStrings[2]="No Translocator Servers"
TranslocatorStrings[2]="Nincsenek Translokátor szerverek"
; EN: CustomQuery.Caption="Custom Query"
CustomQuery.Caption="Egyéni lekérdezés"
; EN: FilterTitle.Caption="Server Filtering Options:"
FilterTitle.Caption="Szerverszűrési lehetőségek:"
MaxGamespeed.Caption="Max"
; EN: MinGamespeed.Caption="Game Speed Min"
MinGamespeed.Caption="Játék sebesség min"
; EN: MutatorModeCombo.Caption="Mutators"
MutatorModeCombo.Caption="Mutátorok"
; EN: MyBackButton.Caption="BACK"
MyBackButton.Caption="VISSZA"
; EN: MyKeyButton.Caption="ICON KEY"
MyKeyButton.Caption="IKON KULCS"
; EN: NoBotServersCheckBox.Caption="No Servers With Bots"
NoBotServersCheckBox.Caption="Nincsenek botokkal rendelkező szerverek"
; EN: NoEmptyCheckBox.Caption="No Empty Servers"
NoEmptyCheckBox.Caption="Nincsenek üres szerverek"
; EN: NoFullCheckBox.Caption="No Full Servers"
NoFullCheckBox.Caption="Nincsenek teljes szerverek"
; EN: NoPasswdCheckBox.Caption="No Passworded Servers"
NoPasswdCheckBox.Caption="Nincsenek jelszavas szerverek"
; EN: OnlyStandardCheckBox.Caption="Only Standard Servers"
OnlyStandardCheckBox.Caption="Csak szabványos szerverek"
; EN: StatsViewCombo.Caption="Stats Servers"
StatsViewCombo.Caption="Statisztika szerverek"
; EN: TranslocatorCombo.Caption="Translocator"
TranslocatorCombo.Caption="Transzlokátor"
WeaponStayCombo.Caption="WeaponStay"

[Browser_RulesList]
; EN: TrueString="Enabled"
TrueString="Engedélyezve"
; EN: FalseString="Disabled"
FalseString="Tiltva"
; EN: ServerModeString="Server Mode"
ServerModeString="Szerver mód"
; EN: DedicatedString="Dedicated"
DedicatedString="Dedikált"
; EN: NonDedicatedString="Non-Dedicated"
NonDedicatedString="Nem dedikált"
; EN: AdminNameString="Server Admin"
AdminNameString="Szerver Adminisztrátor"
; EN: AdminEmailString="Admin Email"
AdminEmailString="Admin e-mail"
; EN: PasswordString="Requires Password"
PasswordString="Jelszó szükséges"
; EN: GameStatsString="UT2004 Stats"
GameStatsString="UT2004 statisztika"
; EN: GameSpeedString="Game Speed"
GameSpeedString="Játék sebesség"
; EN: MutatorString="Mutator"
MutatorString="Mutátor"
BalanceTeamsString="Bots Balance Teams"
PlayersBalanceTeamsString="Balance Teams"
; EN: FriendlyFireString="Friendly Fire"
FriendlyFireString="Baráti tűz"
; EN: GoalScoreString="Goal Score"
GoalScoreString="Gólpontszám"
; EN: TimeLimitString="Time Limit"
TimeLimitString="Határidő"
; EN: MinPlayersString="Minimum Players (bots)"
MinPlayersString="Minimum játékosok (botok)"
; EN: TranslocatorString="Translocator"
TranslocatorString="Transzlokátor"
; EN: WeaponStayString="Weapons Stay"
WeaponStayString="Fegyverek Maradj"
ColumnHeadings=("Setting","Value")

[Browser_ServerListPageBase]
; EN: AddFavoriteButton.Caption="ADD FAVORITE"
AddFavoriteButton.Caption="KEDVENC HOZZÁADÁSA"
; EN: BackButton.Caption="BACK"
BackButton.Caption="VISSZA"
; EN: JoinButton.Caption="JOIN"
JoinButton.Caption="CSATLAKOZIK"
; EN: RefreshButton.Caption="REFRESH LIST"
RefreshButton.Caption="LISTA FRISSÍTÉSE"
SpectateButton.Caption="SPECTATE"

[Browser_ServerListPageBuddy]
; EN: AddBuddyCaption="ADD BUDDY"
AddBuddyCaption="HOZZÁADJA HAJTÁST"
; EN: RemoveBuddyCaption="REMOVE BUDDY"
RemoveBuddyCaption="ELTÁVOLÍTÁSA HAJTÁS"

[Browser_ServerListPageFavorites]
; EN: RemoveFavoriteCaption="REMOVE FAVORITE"
RemoveFavoriteCaption="KEDVENC ELTÁVOLÍTÁSA"
; EN: AddIPCaption="ADD IP"
AddIPCaption="HOZZÁADÁS IP-címet"
; EN: RePingCaption="RE-PING LIST"
RePingCaption="ÚJRA PING LISTA"

[Browser_ServerListPageMS]
; EN: QueryFinHead="Query Complete! Received: "
QueryFinHead="Lekérdezés kész! Megérkezett: "
; EN: QueryFinTail=" Servers"
QueryFinTail=" Szerverek"
; EN: PingRecvString="Pinging Servers"
PingRecvString="Pinging szerverek"
; EN: MustUpgradeString="Upgrade available. Please refresh the News page."
MustUpgradeString="Fejlesztés elérhető. Kérjük, frissítse a Hírek oldalt."
; EN: RefreshFinHead="Pinging Complete! "
RefreshFinHead="A ping kész! "
; EN: RefreshFinMid=" Servers, "
RefreshFinMid=" Szerverek, "
; EN: RefreshFinTail=" Players"
RefreshFinTail=" Játékosok"
; EN: RePingServersCaption="RE-PING LIST"
RePingServersCaption="ÚJRA PING LISTA"
; EN: RefreshCaption="REFRESH LIST"
RefreshCaption="LISTA FRISSÍTÉSE"

[Browser_ServerListPageMSCustom]
; EN: MyGameTypeLabel.Caption="Game Type"
MyGameTypeLabel.Caption="Játék típus"

[Browser_ServersList]
IconDescriptions=("Passworded","Stats Enabled","Latest Version","Listen Server","Instagib","Standard Server","UT Classic")
ColumnHeadings=(,"Server Name","Map","Players","Ping")

[DefaultCrosshairs]
; EN: Crosshair=((FriendlyName="Cross (1)"),(FriendlyName="Cross (2)"),(FriendlyName="Cross (3)"),(FriendlyName="Cross (4)"),(FriendlyName="Cross (5)"),(FriendlyName="Dot"),(FriendlyName="Pointer"),(FriendlyName="Triad (1)"),(FriendlyName="Triad (2)"),(FriendlyName="Triad (3)"),(FriendlyName="Bracket (1)"),(FriendlyName="Bracket (2)"),(FriendlyName="Circle (1)"),(FriendlyName="Circle (2)"))
Crosshair=((FriendlyName="Kereszt (1)"),(FriendlyName="Kereszt (2)"),(FriendlyName="Kereszt (3)"),(FriendlyName="Kereszt (4)"),(FriendlyName="Kereszt (5)"),(FriendlyName="Pont"),(FriendlyName="Mutató"),(FriendlyName="Triád (1)"),(FriendlyName="Triád (2)"),(FriendlyName="Triád (3)"),(FriendlyName="Konzol (1)"),(FriendlyName="Konzol (2)"),(FriendlyName="Kör (1)"),(FriendlyName="Kör (2)"))

[ExtendedConsole]
; EN: AddedCurrentHead="Added Server:"
AddedCurrentHead="Hozzáadott szerver:"
; EN: AddedCurrentTail="To Favorites!"
AddedCurrentTail="Kedvencekhez!"
; EN: ServerFullMsg="Server is now full"
ServerFullMsg="A szerver most megtelt"
; EN: SMStateName[0]="Speech Menu"
SMStateName[0]="Beszéd menü"
; EN: SMStateName[1]="Voice Chat"
SMStateName[1]="Hangcsevegés"
; EN: SMStateName[2]="Acknowledge"
SMStateName[2]="elismerni"
; EN: SMStateName[3]="Friendly Fire"
SMStateName[3]="Baráti tűz"
; EN: SMStateName[4]="Order"
SMStateName[4]="Rendelés"
; EN: SMStateName[5]="Other"
SMStateName[5]="Egyéb"
; EN: SMStateName[6]="Taunt"
SMStateName[6]="Gúnyolódás"
SMStateName[7]="Taunt Anim"
; EN: SMStateName[8]="Player Select"
SMStateName[8]="Játékos kiválasztása"
; EN: SMChannelOptions[0]="Join"
SMChannelOptions[0]="Csatlakozik"
; EN: SMChannelOptions[1]="Leave"
SMChannelOptions[1]="Elhagy"
; EN: SMChannelOptions[2]="Talk"
SMChannelOptions[2]="Beszélgetés"
; EN: SMAllString="[ALL]"
SMAllString="[ÖSSZES]"
; EN: SMMoreString="[MORE]"
SMMoreString="[TÖBB]"

[GUIController]
; EN: DesignModeHints=((Key=" Key",Description="                                Description"),(Key=" (F1)",Description="                                View this help screen"),(Key=" Ctrl + Alt + D",Description="                      Toggles design mode"),(Key=" Ctrl + Alt + E",Description="                      Toggles property editor mode"),(Key=" [Ctrl +] H",Description="                          Toggles active/focused info"),(Key=" [Ctrl +] I",Description="                          Toggle interactive mode"),(Key=" [Ctrl +] P",Description="                          Toggles full MenuOwner chains for active/focused"),(Key=" [Ctrl +] C",Description="                          Copy MoveControl position to clipboard"),(Key=" [Ctrl +] X",Description="                          Export MoveControl to clipboard"),(Key=" [Ctrl +] U",Description="                          Refresh the property window in the designer"),(Key=" [Ctrl +] Up/Down/Left/Right",Description="         Reposition MoveControl using arrow keys"),(Key=" [Ctrl +] +/-",Description="                        Resize MoveControl vertically"),(Key=" [Ctrl +] Num+/Num-",Description="                  Resize selected component horizontally"),(Key=" [Ctrl +] WheelUp",Description="                    Set MoveControl to MoveControl's menuowner"),(Key=" [Ctrl +] WheenDown",Description="                  Set MoveControl to MoveControl's focused control"),(Key=" [(Ctrl + Alt) +] MouseX/Y+LMouse",Description="    Reposition MoveControl using mouse"),(Key=" (Shift)",Description="                             Hides all design mode indicators"),(Key=" (Ctrl + Alt)",Description="                        View focus chain"),(Key=" [Ctrl +] Tab",Description="                        Select new MoveControl"),(Key=" [Ctrl +] LMouse",Description="                     Select new MoveControl"))
DesignModeHints=((Key=" Kulcs",Description="                                Leírás"),(Key=" (F1)",Description="                                Tekintse meg ezt a súgóképernyőt"),(Key=" Ctrl + Alt + D",Description="                      Bekapcsolja a tervezési módot"),(Key=" Ctrl+Alt+E",Description="                      Bekapcsolja a tulajdonságszerkesztő módot"),(Key=" [Ctrl +] H",Description="                          Aktív/fókuszált információk váltása"),(Key=" [Ctrl +] I",Description="                          Az interaktív mód váltása"),(Key=" [Ctrl +] P",Description="                          Átkapcsolja a teljes MenuOwner láncokat aktív/fókuszált módra"),(Key=" [Ctrl +] C",Description="                          A MoveControl pozíciójának másolása a vágólapra"),(Key=" [Ctrl +] X",Description="                          A MoveControl exportálása a vágólapra"),(Key=" [Ctrl +] U",Description="                          Frissítse a tulajdonságablakot a tervezőben"),(Key=" [Ctrl +] Fel/Le/Balra/Jobbra",Description="         Helyezze át a MoveControl elemet a nyílbillentyűkkel"),(Key=" [Ctrl +] +/-",Description="                        A MoveControl átméretezése függőlegesen"),(Key=" [Ctrl +] Num+/Num-",Description="                  A kiválasztott komponens átméretezése vízszintesen"),(Key=" [Ctrl +] WheelUp",Description="                    Állítsa a MoveControl-t a MoveControl menütulajdonosára"),(Key=" [Ctrl +] WheenDown",Description="                  Állítsa a MoveControl-t a MoveControl fókuszált vezérlőjére"),(Key=" [(Ctrl + Alt) +] MouseX/Y+LMegér",Description="    Helyezze át a MoveControl elemet az egér segítségével"),(Key=" (Váltás)",Description="                             Elrejti az összes tervezési mód jelzőt"),(Key=" (Ctrl + Alt)",Description="                        Tekintse meg a fókuszláncot"),(Key=" [Ctrl +] Tab",Description="                        Válassza ki az új MoveControl lehetőséget"),(Key=" [Ctrl +] LMegér",Description="                     Válassza ki az új MoveControl lehetőséget"))

[GUIQuestionPage]
ButtonNames=("Ok","Cancel","Retry","Continue","Yes","No","Abort","Ignore")

[HudBTeamDeathMatch]
; EN: LinkEstablishedMessage="LINK ESTABLISHED"
LinkEstablishedMessage="LINK LÉTREHOZOTT"

[HudBase]
InstructionFontName="UT2003Fonts.jFontMono800x600"
; EN: LevelActionLoading="LOADING..."
LevelActionLoading="BETÖLTÉS..."
; EN: LevelActionPaused="PAUSED"
LevelActionPaused="SZÜNETELTETT"
LevelActionFontName="UT2003Fonts.FontMedium"
; EN: WonMatchPostFix=" won the match!"
WonMatchPostFix=" megnyerte a meccset!"
; EN: WaitingToSpawn="Press [Fire] to join the match!"
WaitingToSpawn="Nyomja meg a [Tűz] gombot, hogy csatlakozzon a mérkőzéshez!"
; EN: AtMenus="Press [ESC] to close menu"
AtMenus="Nyomja meg az [ESC] gombot a menü bezárásához"
; EN: YouveWonTheMatch="You've won the match!"
YouveWonTheMatch="Megnyerted a meccset!"
; EN: YouveLostTheMatch="You've lost the match."
YouveLostTheMatch="Elvesztetted a meccset."
; EN: NowViewing="Now viewing"
NowViewing="Most nézzük"
; EN: ScoreText="Score"
ScoreText="Pontszám"
; EN: InitialViewingString="Press Fire to View a different Player"
InitialViewingString="Nyomja meg a Fire gombot egy másik lejátszó megtekintéséhez"
ProgressFontName="UT2003Fonts.FontMedium"
FontArrayNames[0]="UT2003Fonts.FontEurostile37"
FontArrayNames[1]="UT2003Fonts.FontEurostile29"
FontArrayNames[2]="UT2003Fonts.FontEurostile24"
FontArrayNames[3]="UT2003Fonts.FontEurostile21"
FontArrayNames[4]="UT2003Fonts.FontEurostile17"
FontArrayNames[5]="UT2003Fonts.FontEurostile14"
FontArrayNames[6]="UT2003Fonts.FontEurostile12"
FontArrayNames[7]="UT2003Fonts.FontEurostile9"
FontArrayNames[8]="UT2003Fonts.FontSmallText"

[HudCTeamDeathMatch]
; EN: LinkEstablishedMessage="LINK ESTABLISHED"
LinkEstablishedMessage="LINK LÉTREHOZOTT"

[IRCLink]
; EN: InvalidAddressText="Invalid server address, aborting."
InvalidAddressText="Érvénytelen szervercím, megszakítás."
; EN: ErrorBindingText="Error binding local port, aborting."
ErrorBindingText="Hiba a helyi port kötésekor, megszakítás."
; EN: ResolveFailedText="Failed to resolve server address, aborting."
ResolveFailedText="Nem sikerült feloldani a szerver címét, megszakítás."
; EN: ConnectedText="Connected."
ConnectedText="Csatlakoztatva."
; EN: ConnectingToText="Connecting to"
ConnectingToText="Csatlakozás a következőhöz"
; EN: TimeOutError="Timeout connecting to server."
TimeOutError="A szerverhez való csatlakozás időtúllépése."
; EN: InviteString="invites you to join"
InviteString="meghívja Önt, hogy csatlakozzon"
; EN: NickInUseText="Nickname Already In Use"
NickInUseText="Becenév már használatban van"
; EN: NickInvalidText="Nickname Is Invalid"
NickInvalidText="A becenév érvénytelen"

[IRC_NewNick]
; EN: NewNickEntry.Caption="New Nickname: "
NewNickEntry.Caption="Új becenév: "
; EN: OkButton.Caption="OK"
OkButton.Caption="rendben"

[IRC_Page]
; EN: HasLeftText="has left"
HasLeftText="elhagyta"
; EN: HasJoinedText="has joined"
HasJoinedText="csatlakozott"
; EN: WasKickedByText="was kicked by"
WasKickedByText="megrúgta"
; EN: NowKnownAsText="is now known as"
NowKnownAsText="ma már ismert"
; EN: QuitText="Quit"
QuitText="Kilépés"
; EN: SetsModeText="sets mode"
SetsModeText="módot állít be"
; EN: NewTopicText="Topic"
NewTopicText="Téma"

[IRC_System]
; EN: NotInAChannelText="Not in a channel!"
NotInAChannelText="Nem csatornán!"
; EN: KickedFromText="You were kicked from"
KickedFromText="Kirúgtak tőled"
; EN: ByText="by"
ByText="által"
; EN: IsAwayText="is away"
IsAwayText="távol van"
; EN: ConnectText="CONNECT"
ConnectText="KAPCSOLAT"
; EN: DisconnectText="DISCONNECT"
DisconnectText="SZABADÍTSA LE"
; EN: MyChannelLabel.Caption="Channel"
MyChannelLabel.Caption="Csatorna"
; EN: MyJoinChannelButton.Caption="JOIN CHANNEL"
MyJoinChannelButton.Caption="CSATLAKOZÁS A CSATORNÁHOZ"
; EN: MyRemoveChannelButton.Caption="REMOVE CHANNEL"
MyRemoveChannelButton.Caption="CSATORNA ELTÁVOLÍTÁSA"
; EN: MyRemoveServerButton.Caption="REMOVE SERVER"
MyRemoveServerButton.Caption="SZERVER ELTÁVOLÍTÁSA"
; EN: MyServerLabel.Caption="Server"
MyServerLabel.Caption="szerver"

[JoeTest]
; EN: TestButton1.Caption="Close Window"
TestButton1.Caption="Az ablak bezárása"
TitleText.Caption="Joe's Amazing Test GUI"

[JoeTestPanelA]
; EN: TestButtonA.Caption="Wow"
TestButtonA.Caption="Azta"
; EN: TestButtonB.Caption="Damn"
TestButtonB.Caption="Átkozott"

[ScoreBoardDeathMatch]
; EN: RankText="RANK"
RankText="RANG"
; EN: PlayerText="PLAYER"
PlayerText="JÁTÉKOS"
; EN: PointsText="SCORE"
PointsText="PONTSZÁM"
; EN: TimeText="TIME:"
TimeText="IDŐ:"
PingText="PING:"
PLText="P/L:"
; EN: DeathsText="DEATHS"
DeathsText="HALÁLOZÁSOK"
AdminText="ADMIN"
; EN: NetText="NET"
NetText="HÁLÓ"
; EN: FooterText="Elapsed Time:"
FooterText="Eltelt idő:"
; EN: MatchIDText="UT2004 Stats Match ID"
MatchIDText="UT2004 Statisztikák egyezési azonosító"
; EN: OutText="OUT"
OutText="KI"
; EN: OutFireText="   You are OUT. Fire to view other players."
OutFireText="   KI vagy. Tüzelje el a többi játékos megtekintéséhez."
; EN: ReadyText="READY"
ReadyText="KÉSZ"
; EN: NotReadyText="NOT RDY"
NotReadyText="NEM RDY"
SkillLevel[0]="NOVICE"
; EN: SkillLevel[1]="AVERAGE"
SkillLevel[1]="ÁTLAGOS"
; EN: SkillLevel[2]="EXPERIENCED"
SkillLevel[2]="TAPASZTALT"
; EN: SkillLevel[3]="SKILLED"
SkillLevel[3]="SZAKKÉPZETT"
; EN: SkillLevel[4]="ADEPT"
SkillLevel[4]="ÜGYES"
; EN: SkillLevel[5]="MASTERFUL"
SkillLevel[5]="MESTERI"
; EN: SkillLevel[6]="INHUMAN"
SkillLevel[6]="EMBERTELEN"
; EN: SkillLevel[7]="GODLIKE"
SkillLevel[7]="ISTENI"
; EN: MaxLives="MAX LIVES:"
MaxLives="MAX. ÉLET:"
FragLimit="FRAG LIMIT:"
FPH="PPH"
; EN: GameType="GAME"
GameType="JÁTSZMA, MECCS"
; EN: MapName=" in "
MapName=" ban ben "
; EN: Restart="   You were killed. Press Fire to respawn!"
Restart="   Megölték. Nyomja meg a Tűz gombot az újrakezdéshez!"
; EN: Continue=" Press [Fire] to continue!"
Continue=" Nyomja meg a [Fire] gombot a folytatáshoz!"
; EN: Ended="The match has ended."
Ended="A mérkőzés véget ért."
; EN: TimeLimit="REMAINING TIME:"
TimeLimit="HÁTRALÉVŐ IDŐ:"
Spacer=" "

[ScoreBoardTeamDeathMatch]
; EN: FragLimit="SCORE LIMIT:"
FragLimit="PONTSZÁMÍTÁSI HATÁR:"

[ServerBrowser]
; EN: MutantTypeName="Mutant"
MutantTypeName="Mutáns"
; EN: InvasionTypeName="Invasion"
InvasionTypeName="Invázió"
; EN: LMSTypeName="Last Man Standing"
LMSTypeName="Az utolsó emberig"
MutantType="xMutantGame"
; EN: InvasionType="Invasion"
InvasionType="Invázió"
LMSType="xLastManStanding"
; EN: MyBRServerListPage.PageCaption="Bombing Run"
MyBRServerListPage.PageCaption="Bombavetési rárepülés"
; EN: MyBuddiesPage.PageCaption="Buddies"
MyBuddiesPage.PageCaption="Barátok"
MyCTFServerListPage.PageCaption="CTF"
; EN: MyCustomServerListPage.PageCaption="Custom"
MyCustomServerListPage.PageCaption="Egyedi"
MyDMServerListPage.PageCaption="DM"
MyDomServerListPage.PageCaption="Double Dom"
; EN: MyFavoritesPage.PageCaption="Favorites"
MyFavoritesPage.PageCaption="Kedvencek"
; EN: MyIRCPage.PageCaption="Chat"
MyIRCPage.PageCaption="Csevegés"
MyLANPage.PageCaption="LAN"
; EN: MyMOTDPage.PageCaption="News"
MyMOTDPage.PageCaption="hírek"
; EN: MyPrefsPage.PageCaption="Filter"
MyPrefsPage.PageCaption="Szűrő"
; EN: MyTDMServerListPage.PageCaption="Team DM"
MyTDMServerListPage.PageCaption="DM csapat"
; EN: ServerBrowserHeader.Caption="Server Browser"
ServerBrowserHeader.Caption="Szerverböngésző"

[Tab_AdminPlayerList]
; EN: AdminPlayerBan.Caption="Ban"
AdminPlayerBan.Caption="Tilalom"
; EN: AdminPlayerBan.Hint="Ban this player"
AdminPlayerBan.Hint="Tiltsák ki ezt a játékost"
; EN: AdminPlayerKick.Caption="Kick"
AdminPlayerKick.Caption="Rúgás"
; EN: AdminPlayerKick.Hint="Kick this Player"
AdminPlayerKick.Hint="Rúgd ezt a játékost"

[Tab_AudioSettings]
; EN: AudioModes[0]="Software 3D Audio"
AudioModes[0]="Szoftver 3D Audio"
; EN: AudioModes[1]="Hardware 3D Audio"
AudioModes[1]="Hardveres 3D audio"
; EN: AudioModes[2]="Hardware 3D Audio + EAX"
AudioModes[2]="Hardveres 3D audio + EAX"
; EN: AudioModes[3]="Safe Mode"
AudioModes[3]="Biztonságos mód"
; EN: VoiceModes[0]="All"
VoiceModes[0]="Összes"
; EN: VoiceModes[1]="No auto-taunts"
VoiceModes[1]="Nincs automatikus gúnyolódás"
; EN: VoiceModes[2]="No taunts"
VoiceModes[2]="Nincs csúfolás"
; EN: VoiceModes[3]="None"
VoiceModes[3]="Egyik sem"
; EN: AnnounceModes[0]="None"
AnnounceModes[0]="Egyik sem"
; EN: AnnounceModes[1]="Minimal"
AnnounceModes[1]="Minimális"
; EN: AnnounceModes[2]="All"
AnnounceModes[2]="Összes"
; EN: AudioAnnounce.Caption="Announcements"
AudioAnnounce.Caption="Közlemények"
; EN: AudioAnnounce.Hint="Adjusts the amount of in-game announcements."
AudioAnnounce.Hint="Beállítja a játékon belüli bejelentések mennyiségét."
; EN: AudioAnnouncerPack.Caption="Announcer Voice"
AudioAnnouncerPack.Caption="Bemondó hangja"
; EN: AudioAnnouncerPack.Hint="Select the Announcer for tonight's game."
AudioAnnouncerPack.Hint="Válaszd ki a bemondót a ma esti játékhoz."
AudioAutoTaunt.Caption="Auto-Taunt"
; EN: AudioAutoTaunt.Hint="Enables your in-game player to automatically taunt opponents."
AudioAutoTaunt.Hint="Lehetővé teszi a játékon belüli játékos számára, hogy automatikusan gúnyolja az ellenfeleit."
; EN: AudioEffectsVolumeLabel.Caption="Effects Volume"
AudioEffectsVolumeLabel.Caption="Hatások Hangerő"
; EN: AudioEffectsVolumeSlider.Hint="Changes the volume of all in game sound effects."
AudioEffectsVolumeSlider.Hint="Módosítja a játék összes hangeffektusának hangerejét."
; EN: AudioLowDetail.Caption="Low Sound Detail"
AudioLowDetail.Caption="Alacsony hangrészlet"
; EN: AudioLowDetail.Hint="Lowers quality of sound."
AudioLowDetail.Hint="Csökkenti a hangminőséget."
; EN: AudioMatureTaunts.Caption="Mature Taunts"
AudioMatureTaunts.Caption="Érett gúnyok"
; EN: AudioMatureTaunts.Hint="Enables off-color commentary."
AudioMatureTaunts.Hint="Lehetővé teszi a színtelen kommentárt."
; EN: AudioMessageBeep.Caption="Message Beep"
AudioMessageBeep.Caption="Üzenet hangjelzés"
; EN: AudioMessageBeep.Hint="Enables a beep when receiving a text message from other players."
AudioMessageBeep.Hint="Hangjelzést tesz lehetővé, ha szöveges üzenetet kap más játékosoktól."
; EN: AudioMode.Caption="Audio Mode"
AudioMode.Caption="Audio mód"
; EN: AudioMode.Hint="Changes the audio system mode."
AudioMode.Hint="Módosítja az audiorendszer üzemmódját."
; EN: AudioMusicVolumeLabel.Caption="Music Volume"
AudioMusicVolumeLabel.Caption="Zene hangereje"
; EN: AudioMusicVolumeSlider.Hint="Changes the volume of the background music."
AudioMusicVolumeSlider.Hint="Módosítja a háttérzene hangerejét."
AudioPlayVoices.Caption="Play Voices"
; EN: AudioPlayVoices.Hint="Defines the types of voice messages to play."
AudioPlayVoices.Hint="Meghatározza a lejátszandó hangüzenetek típusait."
; EN: AudioReverseStereo.Caption="Reverse Stereo"
AudioReverseStereo.Caption="Fordított sztereó"
; EN: AudioReverseStereo.Hint="Reverses the left and right audio channels."
AudioReverseStereo.Hint="Felcseréli a bal és a jobb hangcsatornát."
; EN: AudioVoiceVolumeLabel.Caption="Announcer Volume"
AudioVoiceVolumeLabel.Caption="Bemondó kötet"
; EN: AudioVoiceVolumeSlider.Hint="Changes the volume of all in game voice messages."
AudioVoiceVolumeSlider.Hint="Módosítja a játék összes hangüzenetének hangerejét."

[Tab_ControlSettings]
; EN: Bindings=((KeyLabel="Movement"),(KeyLabel="Forward"),(KeyLabel="Backward"),(KeyLabel="Strafe Left"),(KeyLabel="Strafe Right"),(KeyLabel="Jump"),(KeyLabel="Walk"),(KeyLabel="Crouch"),(KeyLabel="Strafe Toggle"),(KeyLabel="Looking"),(KeyLabel="Turn Left"),(KeyLabel="Turn Right"),(KeyLabel="Look Up"),(KeyLabel="Look Down"),(KeyLabel="Center View"),(KeyLabel="Weapons"),(KeyLabel="Fire"),(KeyLabel="Alt-Fire"),(KeyLabel="Throw Weapon"),(KeyLabel="Best Weapon"),(KeyLabel="Next Weapon"),(KeyLabel="Prev Weapon"),(KeyLabel="Last Weapon"),(KeyLabel="Weapon Selection"),(KeyLabel="Super Weapon"),(KeyLabel="Shield Gun"),(KeyLabel="Assault Rifle"),(KeyLabel="Bio-Rifle"),(KeyLabel="Shock Rifle"),(KeyLabel="Link Gun"),(KeyLabel="Minigun"),(KeyLabel="Flak Cannon"),(KeyLabel="Rocket Launcher"),(KeyLabel="Lightning Rifle"),(KeyLabel="Translocator"),(KeyLabel="Communication"),(KeyLabel="Say"),(KeyLabel="Team Say"),(KeyLabel="Speech Menu"),(KeyLabel="Taunts"),(KeyLabel="Pelvic Thrust"),(KeyLabel="Ass Smack"),(KeyLabel="Throat Cut"),(KeyLabel="Hud"),(KeyLabel="Grow Hud"),(KeyLabel="Shrink Hud"),(KeyLabel="Miscellaneous"),(KeyLabel="Pause"),(KeyLabel="Screenshot"),(KeyLabel="Menu"),(KeyLabel="ScoreBoard"),(KeyLabel="ScoreBoard Toggle"),(KeyLabel="In Game Chat"),(KeyLabel="Server Info"))
Bindings=((KeyLabel="Mozgalom"),(KeyLabel="Előre"),(KeyLabel="Hátrafelé"),(KeyLabel="Strafe Left"),(KeyLabel="Strafe Right"),(KeyLabel="Ugrás"),(KeyLabel="Séta"),(KeyLabel="Lekuporodik"),(KeyLabel="Strafe Toggle"),(KeyLabel="Keresi"),(KeyLabel="Forduljon balra"),(KeyLabel="Jobbra"),(KeyLabel="Nézz fel"),(KeyLabel="Nézz le"),(KeyLabel="Középső nézet"),(KeyLabel="Fegyverek"),(KeyLabel="Tűz"),(KeyLabel="Alt-Fire"),(KeyLabel="Dobj fegyvert"),(KeyLabel="Legjobb Fegyver"),(KeyLabel="Következő fegyvert"),(KeyLabel="Előző Fegyver"),(KeyLabel="Utolsó fegyver"),(KeyLabel="Fegyverválasztás"),(KeyLabel="Szuper fegyver"),(KeyLabel="Pajzs fegyver"),(KeyLabel="Gépkarabély"),(KeyLabel="Bio-puska"),(KeyLabel="Shock Rifle"),(KeyLabel="Link Gun"),(KeyLabel="Minigun"),(KeyLabel="Flak Cannon"),(KeyLabel="Rakétavető"),(KeyLabel="Villámpuska"),(KeyLabel="Transzlokátor"),(KeyLabel="Kommunikáció"),(KeyLabel="Mond"),(KeyLabel="Team Say"),(KeyLabel="Beszéd menü"),(KeyLabel="Gúnyolódások"),(KeyLabel="Kismedencei tolóerő"),(KeyLabel="Ass Smack"),(KeyLabel="Torokvágás"),(KeyLabel="Hud"),(KeyLabel="Grow Hud"),(KeyLabel="Shrink Hud"),(KeyLabel="Vegyes"),(KeyLabel="Szünet"),(KeyLabel="Képernyőkép"),(KeyLabel="Menü"),(KeyLabel="Eredménytábla"),(KeyLabel="Eredménytábla kapcsoló"),(KeyLabel="A Game Chatben"),(KeyLabel="Szerver Info"))
Labels=("Movement","Forward","Backward","Strafe Left","Strafe Right","Jump","Walk","Crouch","Strafe Toggle","Looking","Turn Left","Turn Right","Look Up","Look Down","Center View","Weapons","Fire","Alt-Fire","Throw Weapon","Best Weapon","Next Weapon","Prev Weapon","Last Weapon","Weapon Selection","Super Weapon","Shield Gun","Assault Rifle","Bio-Rifle","Shock Rifle","Link Gun","Minigun","Flak Cannon","Rocket Launcher","Lightning Rifle","Translocator","Communication","Say","Team Say","Speech Menu","Taunts","Pelvic Thrust","Ass Smack","Throat Cut","Hud","Grow Hud","Shrink Hud","Miscellaneous","Pause","Screenshot","Menu","ScoreBoard","ScoreBoard Toggle","In Game Chat","Server Info")
Header="["
; EN: Footer="] Perform this action "
Footer="] Hajtsa végre ezt a műveletet "
; EN: KeyConfigAliasLabel.Caption="Action"
KeyConfigAliasLabel.Caption="Akció"
; EN: KeyConfigAliasLabel2.Caption="Key 1"
KeyConfigAliasLabel2.Caption="1. kulcs"
; EN: KeyConfigAliasLabel3.Caption="Key 2"
KeyConfigAliasLabel3.Caption="2. kulcs"
; EN: KeyConfigKeyList.Hint="Select Control to config"
KeyConfigKeyList.Hint="A konfiguráláshoz válassza a Control lehetőséget"
; EN: KeyResetButton.Caption="RESET"
KeyResetButton.Caption="VISSZAÁLLÍTÁS"
; EN: KeyResetButton.Hint="Reset keys to default values"
KeyResetButton.Hint="Állítsa vissza a kulcsokat az alapértelmezett értékekre"

[Tab_DetailSettings]
; EN: DetailLevels[0]="Lowest"
DetailLevels[0]="Legalacsonyabb"
; EN: DetailLevels[1]="Lower"
DetailLevels[1]="Alsó"
; EN: DetailLevels[2]="Low"
DetailLevels[2]="Alacsony"
; EN: DetailLevels[3]="Normal"
DetailLevels[3]="Normál"
; EN: DetailLevels[4]="High"
DetailLevels[4]="Magas"
; EN: DetailLevels[5]="Higher"
DetailLevels[5]="Magasabb"
; EN: DetailLevels[6]="Highest"
DetailLevels[6]="Legmagasabb"
; EN: DetailActorDetail.Caption="World Detail"
DetailActorDetail.Caption="Világrészlet"
; EN: DetailActorDetail.Hint="Changes the level of detail used for optional geometry and effects."
DetailActorDetail.Hint="Módosítja az opcionális geometria és effektusok részletességét."
; EN: DetailBlob.Caption="Use Blob Shadows"
DetailBlob.Caption="Használja a Blob Shadows-t"
; EN: DetailBlob.Hint="Enable blob shadows.  Recommended for low-performance PCs."
DetailBlob.Hint="Blob shadows engedélyezése. Alacsony teljesítményű PC-khez ajánlott."