[AdminPlayerList]
ColumnHeadings=("Player Name","Unique ID","IP")

[Browser_AddBuddy]
; EN: AddBuddyDesc.Caption="Add Buddy"
AddBuddyDesc.Caption="Agregar amigo"
; EN: BuddyEntryBox.Caption="Buddy Name: "
BuddyEntryBox.Caption="Nombre del compañero: "
; EN: CancelButton.Caption="CANCEL"
CancelButton.Caption="CANCELAR"
OkButton.Caption="OK"

[Browser_BuddyList]
ColumnHeadings=("Buddy Name")

[Browser_IRC]
; EN: SystemLabel="System"
SystemLabel="Sistema"
; EN: LeaveChannelCaption="LEAVE CHANNEL"
LeaveChannelCaption="SALIR CANAL"
; EN: LeavePrivateCaptionHead="CLOSE "
LeavePrivateCaptionHead="CERRAR "
; EN: ChooseNewNickText="Choose A New Chat Nickname"
ChooseNewNickText="Elija un nuevo apodo para el chat"
; EN: MyBackButton.Caption="BACK"
MyBackButton.Caption="ESPALDA"
; EN: MyChangeNickButton.Caption="CHANGE NICK"
MyChangeNickButton.Caption="CAMBIAR NICK"

[Browser_IconKey]
; EN: DialogText.Caption="Server Icon Key"
DialogText.Caption="Clave del icono del servidor"
OkButton.Caption="OK"

[Browser_MOTD]
VersionString="Ver."
; EN: MyBackButton.Caption="BACK"
MyBackButton.Caption="ESPALDA"
; EN: MyRefreshButton.Caption="REFRESH"
MyRefreshButton.Caption="ACTUALIZAR"
; EN: MyUpgradeButton.Caption="UPGRADE"
MyUpgradeButton.Caption="POTENCIAR"

[Browser_OpenIP]
; EN: CancelButton.Caption="CANCEL"
CancelButton.Caption="CANCELAR"
; EN: IpEntryBox.Caption="IP Address: "
IpEntryBox.Caption="Dirección IP: "
OkButton.Caption="OK"
; EN: OpenIPDesc.Caption="Enter New IP Address"
OpenIPDesc.Caption="Ingrese nueva dirección IP"

[Browser_Page]
; EN: StartQueryString="Querying Master Server"
StartQueryString="Consultando el servidor maestro"
; EN: AuthFailString="Authentication Failed"
AuthFailString="Autenticación fallida"
; EN: ConnFailString="Connection Failed - Retrying"
ConnFailString="Error de conexión: volviendo a intentar"
; EN: ConnTimeoutString="Connection Timed Out"
ConnTimeoutString="Tiempo de conexión agotado"
; EN: QueryCompleteString="Query Complete!"
QueryCompleteString="¡Consulta completada!"
; EN: RefreshCompleteString="Refresh Complete!"
RefreshCompleteString="¡Actualización completa!"
; EN: ReadyString="Ready"
ReadyString="Listo"

[Browser_PlayersList]
ColumnHeadings=("Player Name","Score","Stats ID","Ping")

[Browser_Prefs]
; EN: ViewStatsStrings[0]="Any Servers"
ViewStatsStrings[0]="Cualquier servidor"
; EN: ViewStatsStrings[1]="Only Stats Servers"
ViewStatsStrings[1]="Solo servidores de estadísticas"
; EN: ViewStatsStrings[2]="No Stats Servers"
ViewStatsStrings[2]="Sin servidores de estadísticas"
; EN: MutatorModeStrings[0]="Any Mutators"
MutatorModeStrings[0]="Cualquier mutador"
; EN: MutatorModeStrings[1]="No Mutators"
MutatorModeStrings[1]="Sin mutadores"
; EN: MutatorModeStrings[2]="This Mutator"
MutatorModeStrings[2]="Este mutador"
; EN: MutatorModeStrings[3]="Not This Mutator"
MutatorModeStrings[3]="No este mutador"
; EN: WeaponStayStrings[0]="Any Servers"
WeaponStayStrings[0]="Cualquier servidor"
; EN: WeaponStayStrings[1]="Only Weapon Stay Servers"
WeaponStayStrings[1]="Solo servidores de estancia de armas"
; EN: WeaponStayStrings[2]="No Weapon Stay Servers"
WeaponStayStrings[2]="Servidores de estancia sin armas"
; EN: TranslocatorStrings[0]="Any Servers"
TranslocatorStrings[0]="Cualquier servidor"
; EN: TranslocatorStrings[1]="Only Translocator Servers"
TranslocatorStrings[1]="Solo servidores Translocator"
; EN: TranslocatorStrings[2]="No Translocator Servers"
TranslocatorStrings[2]="Sin servidores Translocator"
; EN: CustomQuery.Caption="Custom Query"
CustomQuery.Caption="Consulta personalizada"
; EN: FilterTitle.Caption="Server Filtering Options:"
FilterTitle.Caption="Opciones de filtrado del servidor:"
MaxGamespeed.Caption="Max"
; EN: MinGamespeed.Caption="Game Speed Min"
MinGamespeed.Caption="Velocidad de juego mínima"
; EN: MutatorModeCombo.Caption="Mutators"
MutatorModeCombo.Caption="Mutadores"
; EN: MyBackButton.Caption="BACK"
MyBackButton.Caption="ESPALDA"
; EN: MyKeyButton.Caption="ICON KEY"
MyKeyButton.Caption="CLAVE DE ICONO"
; EN: NoBotServersCheckBox.Caption="No Servers With Bots"
NoBotServersCheckBox.Caption="Sin servidores con bots"
; EN: NoEmptyCheckBox.Caption="No Empty Servers"
NoEmptyCheckBox.Caption="Sin servidores vacíos"
; EN: NoFullCheckBox.Caption="No Full Servers"
NoFullCheckBox.Caption="Sin servidores completos"
; EN: NoPasswdCheckBox.Caption="No Passworded Servers"
NoPasswdCheckBox.Caption="Sin servidores con contraseña"
; EN: OnlyStandardCheckBox.Caption="Only Standard Servers"
OnlyStandardCheckBox.Caption="Solo servidores estándar"
; EN: StatsViewCombo.Caption="Stats Servers"
StatsViewCombo.Caption="Servidores de estadísticas"
; EN: TranslocatorCombo.Caption="Translocator"
TranslocatorCombo.Caption="Translocador"
; EN: WeaponStayCombo.Caption="WeaponStay"
WeaponStayCombo.Caption="ArmaQuedarse"

[Browser_RulesList]
; EN: TrueString="Enabled"
TrueString="Activado"
; EN: FalseString="Disabled"
FalseString="Discapacitado"
; EN: ServerModeString="Server Mode"
ServerModeString="Modo servidor"
; EN: DedicatedString="Dedicated"
DedicatedString="Dedicado"
; EN: NonDedicatedString="Non-Dedicated"
NonDedicatedString="No dedicado"
; EN: AdminNameString="Server Admin"
AdminNameString="Administrador del servidor"
; EN: AdminEmailString="Admin Email"
AdminEmailString="Correo electrónico del administrador"
; EN: PasswordString="Requires Password"
PasswordString="Requiere Contraseña"
; EN: GameStatsString="UT2004 Stats"
GameStatsString="Estadísticas de UT2004"
; EN: GameSpeedString="Game Speed"
GameSpeedString="Velocidad del juego"
; EN: MutatorString="Mutator"
MutatorString="Mutador"
; EN: BalanceTeamsString="Bots Balance Teams"
BalanceTeamsString="Equipos de equilibrio de bots"
; EN: PlayersBalanceTeamsString="Balance Teams"
PlayersBalanceTeamsString="Equilibrar equipos"
; EN: FriendlyFireString="Friendly Fire"
FriendlyFireString="Fuego amigo"
; EN: GoalScoreString="Goal Score"
GoalScoreString="Puntuación de gol"
; EN: TimeLimitString="Time Limit"
TimeLimitString="Límite de tiempo"
; EN: MinPlayersString="Minimum Players (bots)"
MinPlayersString="Jugadores mínimos (bots)"
; EN: TranslocatorString="Translocator"
TranslocatorString="Translocador"
; EN: WeaponStayString="Weapons Stay"
WeaponStayString="Las armas se quedan"
ColumnHeadings=("Setting","Value")

[Browser_ServerListPageBase]
; EN: AddFavoriteButton.Caption="ADD FAVORITE"
AddFavoriteButton.Caption="AGREGAR FAVORITO"
; EN: BackButton.Caption="BACK"
BackButton.Caption="ESPALDA"
; EN: JoinButton.Caption="JOIN"
JoinButton.Caption="ENTRAR"
; EN: RefreshButton.Caption="REFRESH LIST"
RefreshButton.Caption="ACTUALIZAR LISTA"
; EN: SpectateButton.Caption="SPECTATE"
SpectateButton.Caption="ESPECTAR"

[Browser_ServerListPageBuddy]
; EN: AddBuddyCaption="ADD BUDDY"
AddBuddyCaption="AGREGAR AMIGO"
; EN: RemoveBuddyCaption="REMOVE BUDDY"
RemoveBuddyCaption="QUITAR AMIGO"

[Browser_ServerListPageFavorites]
; EN: RemoveFavoriteCaption="REMOVE FAVORITE"
RemoveFavoriteCaption="ELIMINAR FAVORITO"
; EN: AddIPCaption="ADD IP"
AddIPCaption="AÑADIR IP"
; EN: RePingCaption="RE-PING LIST"
RePingCaption="LISTA DE RE-PING"

[Browser_ServerListPageMS]
; EN: QueryFinHead="Query Complete! Received: "
QueryFinHead="¡Consulta completada! Recibió: "
; EN: QueryFinTail=" Servers"
QueryFinTail=" Servidores"
; EN: PingRecvString="Pinging Servers"
PingRecvString="Servidores de ping"
; EN: MustUpgradeString="Upgrade available. Please refresh the News page."
MustUpgradeString="Actualización disponible. Actualice la página de noticias."
; EN: RefreshFinHead="Pinging Complete! "
RefreshFinHead="¡Ping completo! "
; EN: RefreshFinMid=" Servers, "
RefreshFinMid=" Servidores "
; EN: RefreshFinTail=" Players"
RefreshFinTail=" Jugadores"
; EN: RePingServersCaption="RE-PING LIST"
RePingServersCaption="LISTA DE RE-PING"
; EN: RefreshCaption="REFRESH LIST"
RefreshCaption="ACTUALIZAR LISTA"

[Browser_ServerListPageMSCustom]
; EN: MyGameTypeLabel.Caption="Game Type"
MyGameTypeLabel.Caption="Tipo de juego"

[Browser_ServersList]
IconDescriptions=("Passworded","Stats Enabled","Latest Version","Listen Server","Instagib","Standard Server","UT Classic")
ColumnHeadings=(,"Server Name","Map","Players","Ping")

[DefaultCrosshairs]
; EN: Crosshair=((FriendlyName="Cross (1)"),(FriendlyName="Cross (2)"),(FriendlyName="Cross (3)"),(FriendlyName="Cross (4)"),(FriendlyName="Cross (5)"),(FriendlyName="Dot"),(FriendlyName="Pointer"),(FriendlyName="Triad (1)"),(FriendlyName="Triad (2)"),(FriendlyName="Triad (3)"),(FriendlyName="Bracket (1)"),(FriendlyName="Bracket (2)"),(FriendlyName="Circle (1)"),(FriendlyName="Circle (2)"))
Crosshair=((FriendlyName="Cruz (1)"),(FriendlyName="Cruz (2)"),(FriendlyName="Cruz (3)"),(FriendlyName="Cruz (4)"),(FriendlyName="Cruz (5)"),(FriendlyName="Punto"),(FriendlyName="Puntero"),(FriendlyName="Tríada (1)"),(FriendlyName="Tríada (2)"),(FriendlyName="Tríada (3)"),(FriendlyName="Soporte (1)"),(FriendlyName="Soporte (2)"),(FriendlyName="Círculo (1)"),(FriendlyName="Círculo (2)"))

[ExtendedConsole]
; EN: AddedCurrentHead="Added Server:"
AddedCurrentHead="Servidor agregado:"
; EN: AddedCurrentTail="To Favorites!"
AddedCurrentTail="¡A favoritos!"
; EN: ServerFullMsg="Server is now full"
ServerFullMsg="El servidor ahora está lleno"
; EN: SMStateName[0]="Speech Menu"
SMStateName[0]="Menú de voz"
; EN: SMStateName[1]="Voice Chat"
SMStateName[1]="Chat de voz"
; EN: SMStateName[2]="Acknowledge"
SMStateName[2]="Reconocer"
; EN: SMStateName[3]="Friendly Fire"
SMStateName[3]="Fuego amigo"
; EN: SMStateName[4]="Order"
SMStateName[4]="Pedido"
; EN: SMStateName[5]="Other"
SMStateName[5]="Otro"
; EN: SMStateName[6]="Taunt"
SMStateName[6]="Pulla"
; EN: SMStateName[7]="Taunt Anim"
SMStateName[7]="Burla Anim"
; EN: SMStateName[8]="Player Select"
SMStateName[8]="Seleccionar jugador"
; EN: SMChannelOptions[0]="Join"
SMChannelOptions[0]="Entrar"
; EN: SMChannelOptions[1]="Leave"
SMChannelOptions[1]="Dejar"
; EN: SMChannelOptions[2]="Talk"
SMChannelOptions[2]="Hablar"
; EN: SMAllString="[ALL]"
SMAllString="[TODOS]"
; EN: SMMoreString="[MORE]"
SMMoreString="[MÁS]"

[GUIController]
; EN: DesignModeHints=((Key=" Key",Description="                                Description"),(Key=" (F1)",Description="                                View this help screen"),(Key=" Ctrl + Alt + D",Description="                      Toggles design mode"),(Key=" Ctrl + Alt + E",Description="                      Toggles property editor mode"),(Key=" [Ctrl +] H",Description="                          Toggles active/focused info"),(Key=" [Ctrl +] I",Description="                          Toggle interactive mode"),(Key=" [Ctrl +] P",Description="                          Toggles full MenuOwner chains for active/focused"),(Key=" [Ctrl +] C",Description="                          Copy MoveControl position to clipboard"),(Key=" [Ctrl +] X",Description="                          Export MoveControl to clipboard"),(Key=" [Ctrl +] U",Description="                          Refresh the property window in the designer"),(Key=" [Ctrl +] Up/Down/Left/Right",Description="         Reposition MoveControl using arrow keys"),(Key=" [Ctrl +] +/-",Description="                        Resize MoveControl vertically"),(Key=" [Ctrl +] Num+/Num-",Description="                  Resize selected component horizontally"),(Key=" [Ctrl +] WheelUp",Description="                    Set MoveControl to MoveControl's menuowner"),(Key=" [Ctrl +] WheenDown",Description="                  Set MoveControl to MoveControl's focused control"),(Key=" [(Ctrl + Alt) +] MouseX/Y+LMouse",Description="    Reposition MoveControl using mouse"),(Key=" (Shift)",Description="                             Hides all design mode indicators"),(Key=" (Ctrl + Alt)",Description="                        View focus chain"),(Key=" [Ctrl +] Tab",Description="                        Select new MoveControl"),(Key=" [Ctrl +] LMouse",Description="                     Select new MoveControl"))
DesignModeHints=((Key=" Llave",Description="                                Descripción"),(Key=" (F1)",Description="                                Ver esta pantalla de ayuda"),(Key=" Ctrl + Alt + D",Description="                      Alterna el modo de diseño"),(Key=" Ctrl + Alt + E",Description="                      Alterna el modo de editor de propiedades"),(Key=" [Ctrl +] H",Description="                          Alterna información activa / enfocada"),(Key=" [Ctrl +] I",Description="                          Alternar el modo interactivo"),(Key=" [Ctrl +] P",Description="                          Cambia las cadenas de MenuOwner completas para activo / enfocado"),(Key=" [Ctrl +] C",Description="                          Copiar la posición MoveControl al portapapeles"),(Key=" [Ctrl +] X",Description="                          Exportar MoveControl al portapapeles"),(Key=" [Ctrl +] U",Description="                          Actualizar la ventana de propiedades en el diseñador"),(Key=" [Ctrl +] Arriba / Abajo / Izquierda / Derecha",Description="         Vuelva a colocar MoveControl usando las teclas de flecha"),(Key=" [Ctrl +] +/-",Description="                        Cambiar el tamaño de MoveControl verticalmente"),(Key=" [Ctrl +] Num + / Num-",Description="                  Cambiar el tamaño del componente seleccionado horizontalmente"),(Key=" [Ctrl +] WheelUp",Description="                    Establezca MoveControl en el propietario del menú de MoveControl"),(Key=" [Ctrl +] WheenDown",Description="                  Establezca MoveControl en el control enfocado de MoveControl"),(Key=" [(Ctrl + Alt) +] MouseX / Y + LMouse",Description="    Reposicionar MoveControl usando el mouse"),(Key=" (Cambio)",Description="                             Oculta todos los indicadores de modo de diseño"),(Key=" (Ctrl + Alt)",Description="                        Ver cadena de enfoque"),(Key=" Pestaña [Ctrl +]",Description="                        Seleccionar nuevo MoveControl"),(Key=" [Ctrl +] LMouse",Description="                     Seleccionar nuevo MoveControl"))

[GUIQuestionPage]
ButtonNames=("Ok","Cancel","Retry","Continue","Yes","No","Abort","Ignore")

[HudBTeamDeathMatch]
; EN: LinkEstablishedMessage="LINK ESTABLISHED"
LinkEstablishedMessage="ENLACE ESTABLECIDO"

[HudBase]
InstructionFontName="UT2003Fonts.jFontMono800x600"
; EN: LevelActionLoading="LOADING..."
LevelActionLoading="CARGANDO..."
LevelActionPaused="PAUSED"
LevelActionFontName="UT2003Fonts.FontMedium"
; EN: WonMatchPostFix=" won the match!"
WonMatchPostFix=" ¡Ganó el juego!"
; EN: WaitingToSpawn="Press [Fire] to join the match!"
WaitingToSpawn="¡Pulsa [Fuego] para unirte a la partida!"
; EN: AtMenus="Press [ESC] to close menu"
AtMenus="Presione [ESC] para cerrar el menú"
; EN: YouveWonTheMatch="You've won the match!"
YouveWonTheMatch="¡Has ganado el partido!"
; EN: YouveLostTheMatch="You've lost the match."
YouveLostTheMatch="Has perdido el partido."
; EN: NowViewing="Now viewing"
NowViewing="Ahora viendo"
; EN: ScoreText="Score"
ScoreText="Puntaje"
; EN: InitialViewingString="Press Fire to View a different Player"
InitialViewingString="Pulsa Fuego para ver un jugador diferente"
ProgressFontName="UT2003Fonts.FontMedium"
; EN: FontArrayNames[0]="UT2003Fonts.FontEurostile37"
FontArrayNames[0]="UT2003Fuentes.FuenteEurostile37"
FontArrayNames[1]="UT2003Fonts.FontEurostile29"
FontArrayNames[2]="UT2003Fonts.FontEurostile24"
FontArrayNames[3]="UT2003Fonts.FontEurostile21"
FontArrayNames[4]="UT2003Fonts.FontEurostile17"
FontArrayNames[5]="UT2003Fonts.FontEurostile14"
FontArrayNames[6]="UT2003Fonts.FontEurostile12"
FontArrayNames[7]="UT2003Fonts.FontEurostile9"
FontArrayNames[8]="UT2003Fonts.FontSmallText"

[HudCTeamDeathMatch]
; EN: LinkEstablishedMessage="LINK ESTABLISHED"
LinkEstablishedMessage="ENLACE ESTABLECIDO"

[IRCLink]
; EN: InvalidAddressText="Invalid server address, aborting."
InvalidAddressText="Dirección de servidor no válida, cancelando."
; EN: ErrorBindingText="Error binding local port, aborting."
ErrorBindingText="Error al vincular el puerto local, abortando."
; EN: ResolveFailedText="Failed to resolve server address, aborting."
ResolveFailedText="No se pudo resolver la dirección del servidor, se canceló."
; EN: ConnectedText="Connected."
ConnectedText="Conectado."
; EN: ConnectingToText="Connecting to"
ConnectingToText="Conectado a"
; EN: TimeOutError="Timeout connecting to server."
TimeOutError="Se agotó el tiempo de espera para conectarse al servidor."
; EN: InviteString="invites you to join"
InviteString="te invita a unirte"
; EN: NickInUseText="Nickname Already In Use"
NickInUseText="Apodo ya en uso"
; EN: NickInvalidText="Nickname Is Invalid"
NickInvalidText="El apodo no es válido"

[IRC_NewNick]
; EN: NewNickEntry.Caption="New Nickname: "
NewNickEntry.Caption="Nuevo apodo: "
OkButton.Caption="OK"

[IRC_Page]
; EN: HasLeftText="has left"
HasLeftText="ha dejado"
; EN: HasJoinedText="has joined"
HasJoinedText="se ha unido"
; EN: WasKickedByText="was kicked by"
WasKickedByText="fue pateado por"
; EN: NowKnownAsText="is now known as"
NowKnownAsText="ahora se conoce como"
; EN: QuitText="Quit"
QuitText="Dejar"
; EN: SetsModeText="sets mode"
SetsModeText="modo de conjuntos"
; EN: NewTopicText="Topic"
NewTopicText="Tema"

[IRC_System]
; EN: NotInAChannelText="Not in a channel!"
NotInAChannelText="¡No en un canal!"
; EN: KickedFromText="You were kicked from"
KickedFromText="Fuiste expulsado de"
; EN: ByText="by"
ByText="por"
; EN: IsAwayText="is away"
IsAwayText="está lejos"
; EN: ConnectText="CONNECT"
ConnectText="CONECTAR"
; EN: DisconnectText="DISCONNECT"
DisconnectText="DESCONECTAR"
; EN: MyChannelLabel.Caption="Channel"
MyChannelLabel.Caption="Canal"
; EN: MyJoinChannelButton.Caption="JOIN CHANNEL"
MyJoinChannelButton.Caption="UNIRSE AL CANAL"
; EN: MyRemoveChannelButton.Caption="REMOVE CHANNEL"
MyRemoveChannelButton.Caption="QUITAR CANAL"
; EN: MyRemoveServerButton.Caption="REMOVE SERVER"
MyRemoveServerButton.Caption="QUITAR SERVIDOR"
; EN: MyServerLabel.Caption="Server"
MyServerLabel.Caption="Servidor"

[JoeTest]
; EN: TestButton1.Caption="Close Window"
TestButton1.Caption="Cerrar ventana"
; EN: TitleText.Caption="Joe's Amazing Test GUI"
TitleText.Caption="GUI de prueba increíble de Joe"

[JoeTestPanelA]
; EN: TestButtonA.Caption="Wow"
TestButtonA.Caption="Guau"
; EN: TestButtonB.Caption="Damn"
TestButtonB.Caption="Maldita sea"

[ScoreBoardDeathMatch]
; EN: RankText="RANK"
RankText="RANGO"
; EN: PlayerText="PLAYER"
PlayerText="JUGADOR"
; EN: PointsText="SCORE"
PointsText="PUNTAJE"
; EN: TimeText="TIME:"
TimeText="TIEMPO:"
; EN: PingText="PING:"
PingText="SILBIDO:"
; EN: PLText="P/L:"
PLText="P / L:"
; EN: DeathsText="DEATHS"
DeathsText="FALLECIDOS"
; EN: AdminText="ADMIN"
AdminText="ADMINISTRACIÓN"
; EN: NetText="NET"
NetText="NETO"
; EN: FooterText="Elapsed Time:"
FooterText="Tiempo transcurrido:"
; EN: MatchIDText="UT2004 Stats Match ID"
MatchIDText="ID de partido de estadísticas de UT2004"
; EN: OutText="OUT"
OutText="FUERA"
; EN: OutFireText="   You are OUT. Fire to view other players."
OutFireText="   Estás fuera. Dispara para ver a otros jugadores."
; EN: ReadyText="READY"
ReadyText="LISTO"
; EN: NotReadyText="NOT RDY"
NotReadyText="NO ESTÁ RDY"
; EN: SkillLevel[0]="NOVICE"
SkillLevel[0]="PRINCIPIANTE"
; EN: SkillLevel[1]="AVERAGE"
SkillLevel[1]="PROMEDIO"
; EN: SkillLevel[2]="EXPERIENCED"
SkillLevel[2]="EXPERIMENTADO"
; EN: SkillLevel[3]="SKILLED"
SkillLevel[3]="EXPERTO"
; EN: SkillLevel[4]="ADEPT"
SkillLevel[4]="ADEPTO"
; EN: SkillLevel[5]="MASTERFUL"
SkillLevel[5]="MAESTRO"
; EN: SkillLevel[6]="INHUMAN"
SkillLevel[6]="INHUMANO"
; EN: SkillLevel[7]="GODLIKE"
SkillLevel[7]="DIVINO"
; EN: MaxLives="MAX LIVES:"
MaxLives="VIDAS MAX:"
; EN: FragLimit="FRAG LIMIT:"
FragLimit="LÍMITE DE FRAG:"
FPH="PPH"
; EN: GameType="GAME"
GameType="JUEGO"
; EN: MapName=" in "
MapName=" en "
; EN: Restart="   You were killed. Press Fire to respawn!"
Restart="   Fuiste asesinado. ¡Pulsa Fuego para reaparecer!"
; EN: Continue=" Press [Fire] to continue!"
Continue=" ¡Pulsa [Fuego] para continuar!"
; EN: Ended="The match has ended."
Ended="El partido ha terminado."
; EN: TimeLimit="REMAINING TIME:"
TimeLimit="TIEMPO RESTANTE:"
Spacer=" "

[ScoreBoardTeamDeathMatch]
; EN: FragLimit="SCORE LIMIT:"
FragLimit="LÍMITE DE PUNTUACIÓN:"

[ServerBrowser]
; EN: MutantTypeName="Mutant"
MutantTypeName="Mutante"
; EN: InvasionTypeName="Invasion"
InvasionTypeName="Invasión"
; EN: LMSTypeName="Last Man Standing"
LMSTypeName="Último hombre de pie"
MutantType="xMutantGame"
; EN: InvasionType="Invasion"
InvasionType="Invasión"
LMSType="xLastManStanding"
; EN: MyBRServerListPage.PageCaption="Bombing Run"
MyBRServerListPage.PageCaption="Carrera de bombardeo"
; EN: MyBuddiesPage.PageCaption="Buddies"
MyBuddiesPage.PageCaption="Amigos"
MyCTFServerListPage.PageCaption="CTF"
; EN: MyCustomServerListPage.PageCaption="Custom"
MyCustomServerListPage.PageCaption="Personalizado"
MyDMServerListPage.PageCaption="DM"
; EN: MyDomServerListPage.PageCaption="Double Dom"
MyDomServerListPage.PageCaption="Dom doble"
; EN: MyFavoritesPage.PageCaption="Favorites"
MyFavoritesPage.PageCaption="Favoritos"
MyIRCPage.PageCaption="Chat"
MyLANPage.PageCaption="LAN"
; EN: MyMOTDPage.PageCaption="News"
MyMOTDPage.PageCaption="Noticias"
; EN: MyPrefsPage.PageCaption="Filter"
MyPrefsPage.PageCaption="Filtrar"
; EN: MyTDMServerListPage.PageCaption="Team DM"
MyTDMServerListPage.PageCaption="Equipo DM"
; EN: ServerBrowserHeader.Caption="Server Browser"
ServerBrowserHeader.Caption="Navegador del servidor"

[Tab_AdminPlayerList]
; EN: AdminPlayerBan.Caption="Ban"
AdminPlayerBan.Caption="Prohibición"
; EN: AdminPlayerBan.Hint="Ban this player"
AdminPlayerBan.Hint="Prohibir a este jugador"
; EN: AdminPlayerKick.Caption="Kick"
AdminPlayerKick.Caption="Patear"
; EN: AdminPlayerKick.Hint="Kick this Player"
AdminPlayerKick.Hint="Patea a este jugador"

[Tab_AudioSettings]
; EN: AudioModes[0]="Software 3D Audio"
AudioModes[0]="Software de audio 3D"
; EN: AudioModes[1]="Hardware 3D Audio"
AudioModes[1]="Hardware de audio 3D"
AudioModes[2]="Hardware 3D Audio + EAX"
; EN: AudioModes[3]="Safe Mode"
AudioModes[3]="Modo seguro"
; EN: VoiceModes[0]="All"
VoiceModes[0]="Todos"
; EN: VoiceModes[1]="No auto-taunts"
VoiceModes[1]="Sin burlas automáticas"
; EN: VoiceModes[2]="No taunts"
VoiceModes[2]="Sin burlas"
; EN: VoiceModes[3]="None"
VoiceModes[3]="Ninguno"
; EN: AnnounceModes[0]="None"
AnnounceModes[0]="Ninguno"
; EN: AnnounceModes[1]="Minimal"
AnnounceModes[1]="Mínimo"
; EN: AnnounceModes[2]="All"
AnnounceModes[2]="Todos"
; EN: AudioAnnounce.Caption="Announcements"
AudioAnnounce.Caption="Anuncios"
; EN: AudioAnnounce.Hint="Adjusts the amount of in-game announcements."
AudioAnnounce.Hint="Ajusta la cantidad de anuncios en el juego."
; EN: AudioAnnouncerPack.Caption="Announcer Voice"
AudioAnnouncerPack.Caption="Voz de locutor"
; EN: AudioAnnouncerPack.Hint="Select the Announcer for tonight's game."
AudioAnnouncerPack.Hint="Seleccione el locutor para el juego de esta noche."
; EN: AudioAutoTaunt.Caption="Auto-Taunt"
AudioAutoTaunt.Caption="Burla automática"
; EN: AudioAutoTaunt.Hint="Enables your in-game player to automatically taunt opponents."
AudioAutoTaunt.Hint="Permite al jugador del juego burlarse automáticamente de los oponentes."
; EN: AudioEffectsVolumeLabel.Caption="Effects Volume"
AudioEffectsVolumeLabel.Caption="Volumen de efectos"
; EN: AudioEffectsVolumeSlider.Hint="Changes the volume of all in game sound effects."
AudioEffectsVolumeSlider.Hint="Cambia el volumen de todos los efectos de sonido del juego."
; EN: AudioLowDetail.Caption="Low Sound Detail"
AudioLowDetail.Caption="Detalle de sonido bajo"
; EN: AudioLowDetail.Hint="Lowers quality of sound."
AudioLowDetail.Hint="Reduce la calidad del sonido."
; EN: AudioMatureTaunts.Caption="Mature Taunts"
AudioMatureTaunts.Caption="Burlas maduras"
; EN: AudioMatureTaunts.Hint="Enables off-color commentary."
AudioMatureTaunts.Hint="Habilita comentarios sin color."
; EN: AudioMessageBeep.Caption="Message Beep"
AudioMessageBeep.Caption="Bip de mensaje"
; EN: AudioMessageBeep.Hint="Enables a beep when receiving a text message from other players."
AudioMessageBeep.Hint="Habilita un pitido al recibir un mensaje de texto de otros jugadores."
; EN: AudioMode.Caption="Audio Mode"
AudioMode.Caption="Modo de audio"
; EN: AudioMode.Hint="Changes the audio system mode."
AudioMode.Hint="Cambia el modo del sistema de audio."
; EN: AudioMusicVolumeLabel.Caption="Music Volume"
AudioMusicVolumeLabel.Caption="Volumen de la música"
; EN: AudioMusicVolumeSlider.Hint="Changes the volume of the background music."
AudioMusicVolumeSlider.Hint="Cambia el volumen de la música de fondo."
; EN: AudioPlayVoices.Caption="Play Voices"
AudioPlayVoices.Caption="Reproducir voces"
; EN: AudioPlayVoices.Hint="Defines the types of voice messages to play."
AudioPlayVoices.Hint="Define los tipos de mensajes de voz que se reproducirán."
; EN: AudioReverseStereo.Caption="Reverse Stereo"
AudioReverseStereo.Caption="Estéreo inverso"
; EN: AudioReverseStereo.Hint="Reverses the left and right audio channels."
AudioReverseStereo.Hint="Invierte los canales de audio izquierdo y derecho."
; EN: AudioVoiceVolumeLabel.Caption="Announcer Volume"
AudioVoiceVolumeLabel.Caption="Volumen del locutor"
; EN: AudioVoiceVolumeSlider.Hint="Changes the volume of all in game voice messages."
AudioVoiceVolumeSlider.Hint="Cambia el volumen de todos los mensajes de voz del juego."

[Tab_ControlSettings]
; EN: Bindings=((KeyLabel="Movement"),(KeyLabel="Forward"),(KeyLabel="Backward"),(KeyLabel="Strafe Left"),(KeyLabel="Strafe Right"),(KeyLabel="Jump"),(KeyLabel="Walk"),(KeyLabel="Crouch"),(KeyLabel="Strafe Toggle"),(KeyLabel="Looking"),(KeyLabel="Turn Left"),(KeyLabel="Turn Right"),(KeyLabel="Look Up"),(KeyLabel="Look Down"),(KeyLabel="Center View"),(KeyLabel="Weapons"),(KeyLabel="Fire"),(KeyLabel="Alt-Fire"),(KeyLabel="Throw Weapon"),(KeyLabel="Best Weapon"),(KeyLabel="Next Weapon"),(KeyLabel="Prev Weapon"),(KeyLabel="Last Weapon"),(KeyLabel="Weapon Selection"),(KeyLabel="Super Weapon"),(KeyLabel="Shield Gun"),(KeyLabel="Assault Rifle"),(KeyLabel="Bio-Rifle"),(KeyLabel="Shock Rifle"),(KeyLabel="Link Gun"),(KeyLabel="Minigun"),(KeyLabel="Flak Cannon"),(KeyLabel="Rocket Launcher"),(KeyLabel="Lightning Rifle"),(KeyLabel="Translocator"),(KeyLabel="Communication"),(KeyLabel="Say"),(KeyLabel="Team Say"),(KeyLabel="Speech Menu"),(KeyLabel="Taunts"),(KeyLabel="Pelvic Thrust"),(KeyLabel="Ass Smack"),(KeyLabel="Throat Cut"),(KeyLabel="Hud"),(KeyLabel="Grow Hud"),(KeyLabel="Shrink Hud"),(KeyLabel="Miscellaneous"),(KeyLabel="Pause"),(KeyLabel="Screenshot"),(KeyLabel="Menu"),(KeyLabel="ScoreBoard"),(KeyLabel="ScoreBoard Toggle"),(KeyLabel="In Game Chat"),(KeyLabel="Server Info"))
Bindings=((KeyLabel="Movimiento"),(KeyLabel="Hacia adelante"),(KeyLabel="Hacia atrás"),(KeyLabel="Ametrallar a la izquierda"),(KeyLabel="Desplazarse a la derecha"),(KeyLabel="Salto"),(KeyLabel="Andar"),(KeyLabel="Agacharse"),(KeyLabel="Palanca de desplazamiento"),(KeyLabel="Mirando"),(KeyLabel="Gire a la izquierda"),(KeyLabel="Gire a la derecha"),(KeyLabel="Buscar"),(KeyLabel="Mira abajo"),(KeyLabel="Vista de centro"),(KeyLabel="Armas"),(KeyLabel="Fuego"),(KeyLabel="Alt-Fuego"),(KeyLabel="Lanzar arma"),(KeyLabel="Mejor arma"),(KeyLabel="Siguiente arma"),(KeyLabel="Arma previa"),(KeyLabel="Última arma"),(KeyLabel="Selección de armas"),(KeyLabel="Súper arma"),(KeyLabel="Arma de escudo"),(KeyLabel="Fusil de asalto"),(KeyLabel="Rifle biológico"),(KeyLabel="Rifle de choque"),(KeyLabel="Link Gun"),(KeyLabel="Minigun"),(KeyLabel="Cañón antiaéreo"),(KeyLabel="Lanzacohetes"),(KeyLabel="Rifle de relámpago"),(KeyLabel="Translocador"),(KeyLabel="Comunicación"),(KeyLabel="Decir"),(KeyLabel="Equipo dice"),(KeyLabel="Menú de voz"),(KeyLabel="Burlas"),(KeyLabel="Empuje pelvico"),(KeyLabel="Bofetada en el culo"),(KeyLabel="Corte de garganta"),(KeyLabel="Hud"),(KeyLabel="Grow Hud"),(KeyLabel="Encoger hud"),(KeyLabel="Diverso"),(KeyLabel="Pausa"),(KeyLabel="Captura de pantalla"),(KeyLabel="Menú"),(KeyLabel="Marcador"),(KeyLabel="Alternar tabla de puntuación"),(KeyLabel="En el chat del juego"),(KeyLabel="Información del servidor"))
Labels=("Movement","Forward","Backward","Strafe Left","Strafe Right","Jump","Walk","Crouch","Strafe Toggle","Looking","Turn Left","Turn Right","Look Up","Look Down","Center View","Weapons","Fire","Alt-Fire","Throw Weapon","Best Weapon","Next Weapon","Prev Weapon","Last Weapon","Weapon Selection","Super Weapon","Shield Gun","Assault Rifle","Bio-Rifle","Shock Rifle","Link Gun","Minigun","Flak Cannon","Rocket Launcher","Lightning Rifle","Translocator","Communication","Say","Team Say","Speech Menu","Taunts","Pelvic Thrust","Ass Smack","Throat Cut","Hud","Grow Hud","Shrink Hud","Miscellaneous","Pause","Screenshot","Menu","ScoreBoard","ScoreBoard Toggle","In Game Chat","Server Info")
Header="["
; EN: Footer="] Perform this action "
Footer="] Realice esta acción "
; EN: KeyConfigAliasLabel.Caption="Action"
KeyConfigAliasLabel.Caption="Acción"
; EN: KeyConfigAliasLabel2.Caption="Key 1"
KeyConfigAliasLabel2.Caption="Clave 1"
; EN: KeyConfigAliasLabel3.Caption="Key 2"
KeyConfigAliasLabel3.Caption="Clave 2"
; EN: KeyConfigKeyList.Hint="Select Control to config"
KeyConfigKeyList.Hint="Seleccione Control para configurar"
; EN: KeyResetButton.Caption="RESET"
KeyResetButton.Caption="REINICIAR"
; EN: KeyResetButton.Hint="Reset keys to default values"
KeyResetButton.Hint="Restablecer las claves a los valores predeterminados"

[Tab_DetailSettings]
; EN: DetailLevels[0]="Lowest"
DetailLevels[0]="Más bajo"
; EN: DetailLevels[1]="Lower"
DetailLevels[1]="Más bajo"
; EN: DetailLevels[2]="Low"
DetailLevels[2]="Bajo"
DetailLevels[3]="Normal"
; EN: DetailLevels[4]="High"
DetailLevels[4]="Elevado"
; EN: DetailLevels[5]="Higher"
DetailLevels[5]="Más alto"
; EN: DetailLevels[6]="Highest"
DetailLevels[6]="Más alto"
; EN: DetailActorDetail.Caption="World Detail"