[AdminPlayerList]
ColumnHeadings=("Player Name","Unique ID","IP")

[Browser_AddBuddy]
; EN: AddBuddyDesc.Caption="Add Buddy"
AddBuddyDesc.Caption="Aggiungi amico"
; EN: BuddyEntryBox.Caption="Buddy Name: "
BuddyEntryBox.Caption="Nome dell'amico: "
; EN: CancelButton.Caption="CANCEL"
CancelButton.Caption="ANNULLA"
; EN: OkButton.Caption="OK"
OkButton.Caption="ok"

[Browser_BuddyList]
ColumnHeadings=("Buddy Name")

[Browser_IRC]
; EN: SystemLabel="System"
SystemLabel="Sistema"
; EN: LeaveChannelCaption="LEAVE CHANNEL"
LeaveChannelCaption="LASCIA IL CANALE"
; EN: LeavePrivateCaptionHead="CLOSE "
LeavePrivateCaptionHead="CHIUDERE "
; EN: ChooseNewNickText="Choose A New Chat Nickname"
ChooseNewNickText="Scegli un nuovo nickname per la chat"
; EN: MyBackButton.Caption="BACK"
MyBackButton.Caption="INDIETRO"
; EN: MyChangeNickButton.Caption="CHANGE NICK"
MyChangeNickButton.Caption="CAMBIA NICK"

[Browser_IconKey]
; EN: DialogText.Caption="Server Icon Key"
DialogText.Caption="Tasto icona server"
; EN: OkButton.Caption="OK"
OkButton.Caption="ok"

[Browser_MOTD]
VersionString="Ver."
; EN: MyBackButton.Caption="BACK"
MyBackButton.Caption="INDIETRO"
; EN: MyRefreshButton.Caption="REFRESH"
MyRefreshButton.Caption="RICARICARE"
; EN: MyUpgradeButton.Caption="UPGRADE"
MyUpgradeButton.Caption="AGGIORNAMENTO"

[Browser_OpenIP]
; EN: CancelButton.Caption="CANCEL"
CancelButton.Caption="ANNULLA"
; EN: IpEntryBox.Caption="IP Address: "
IpEntryBox.Caption="Indirizzo IP: "
; EN: OkButton.Caption="OK"
OkButton.Caption="ok"
; EN: OpenIPDesc.Caption="Enter New IP Address"
OpenIPDesc.Caption="Inserisci nuovo indirizzo IP"

[Browser_Page]
; EN: StartQueryString="Querying Master Server"
StartQueryString="Interrogazione del server principale"
; EN: AuthFailString="Authentication Failed"
AuthFailString="Autenticazione fallita"
; EN: ConnFailString="Connection Failed - Retrying"
ConnFailString="Connessione non riuscita - Nuovo tentativo"
; EN: ConnTimeoutString="Connection Timed Out"
ConnTimeoutString="Connessione Scaduta"
; EN: QueryCompleteString="Query Complete!"
QueryCompleteString="Query completata!"
; EN: RefreshCompleteString="Refresh Complete!"
RefreshCompleteString="Aggiornamento completato!"
; EN: ReadyString="Ready"
ReadyString="Pronto"

[Browser_PlayersList]
ColumnHeadings=("Player Name","Score","Stats ID","Ping")

[Browser_Prefs]
; EN: ViewStatsStrings[0]="Any Servers"
ViewStatsStrings[0]="Qualsiasi server"
; EN: ViewStatsStrings[1]="Only Stats Servers"
ViewStatsStrings[1]="Solo server di statistiche"
; EN: ViewStatsStrings[2]="No Stats Servers"
ViewStatsStrings[2]="Nessun server di statistiche"
; EN: MutatorModeStrings[0]="Any Mutators"
MutatorModeStrings[0]="Qualsiasi mutatore"
; EN: MutatorModeStrings[1]="No Mutators"
MutatorModeStrings[1]="Nessun mutatore"
; EN: MutatorModeStrings[2]="This Mutator"
MutatorModeStrings[2]="questo mutatore"
; EN: MutatorModeStrings[3]="Not This Mutator"
MutatorModeStrings[3]="Non questo mutatore"
; EN: WeaponStayStrings[0]="Any Servers"
WeaponStayStrings[0]="Qualsiasi server"
; EN: WeaponStayStrings[1]="Only Weapon Stay Servers"
WeaponStayStrings[1]="Solo server di permanenza delle armi"
; EN: WeaponStayStrings[2]="No Weapon Stay Servers"
WeaponStayStrings[2]="Nessun server di permanenza delle armi"
; EN: TranslocatorStrings[0]="Any Servers"
TranslocatorStrings[0]="Qualsiasi server"
; EN: TranslocatorStrings[1]="Only Translocator Servers"
TranslocatorStrings[1]="Solo server traslocatori"
; EN: TranslocatorStrings[2]="No Translocator Servers"
TranslocatorStrings[2]="Nessun server traslocatore"
; EN: CustomQuery.Caption="Custom Query"
CustomQuery.Caption="Query personalizzata"
; EN: FilterTitle.Caption="Server Filtering Options:"
FilterTitle.Caption="Opzioni di filtro del server:"
MaxGamespeed.Caption="Max"
; EN: MinGamespeed.Caption="Game Speed Min"
MinGamespeed.Caption="Velocità di gioco min"
; EN: MutatorModeCombo.Caption="Mutators"
MutatorModeCombo.Caption="mutatori"
; EN: MyBackButton.Caption="BACK"
MyBackButton.Caption="INDIETRO"
; EN: MyKeyButton.Caption="ICON KEY"
MyKeyButton.Caption="TASTO ICONA"
; EN: NoBotServersCheckBox.Caption="No Servers With Bots"
NoBotServersCheckBox.Caption="Nessun server con bot"
; EN: NoEmptyCheckBox.Caption="No Empty Servers"
NoEmptyCheckBox.Caption="Nessun server vuoto"
; EN: NoFullCheckBox.Caption="No Full Servers"
NoFullCheckBox.Caption="Nessun server pieno"
; EN: NoPasswdCheckBox.Caption="No Passworded Servers"
NoPasswdCheckBox.Caption="Nessun server con password"
; EN: OnlyStandardCheckBox.Caption="Only Standard Servers"
OnlyStandardCheckBox.Caption="Solo server standard"
; EN: StatsViewCombo.Caption="Stats Servers"
StatsViewCombo.Caption="Server di statistiche"
; EN: TranslocatorCombo.Caption="Translocator"
TranslocatorCombo.Caption="traslocatore"
; EN: WeaponStayCombo.Caption="WeaponStay"
WeaponStayCombo.Caption="Arma Resta"

[Browser_RulesList]
; EN: TrueString="Enabled"
TrueString="Abilitato"
; EN: FalseString="Disabled"
FalseString="Disabilitato"
; EN: ServerModeString="Server Mode"
ServerModeString="Modalità server"
; EN: DedicatedString="Dedicated"
DedicatedString="dedicato"
; EN: NonDedicatedString="Non-Dedicated"
NonDedicatedString="Non dedicato"
; EN: AdminNameString="Server Admin"
AdminNameString="Amministratore del server"
; EN: AdminEmailString="Admin Email"
AdminEmailString="Email amministratore"
; EN: PasswordString="Requires Password"
PasswordString="Richiede password"
; EN: GameStatsString="UT2004 Stats"
GameStatsString="Statistiche UT2004"
; EN: GameSpeedString="Game Speed"
GameSpeedString="Velocità di gioco"
; EN: MutatorString="Mutator"
MutatorString="mutatore"
; EN: BalanceTeamsString="Bots Balance Teams"
BalanceTeamsString="Bot Equilibrio Squadre"
; EN: PlayersBalanceTeamsString="Balance Teams"
PlayersBalanceTeamsString="Equilibrio squadre"
; EN: FriendlyFireString="Friendly Fire"
FriendlyFireString="Fuoco amico"
; EN: GoalScoreString="Goal Score"
GoalScoreString="Punteggio gol"
; EN: TimeLimitString="Time Limit"
TimeLimitString="Limite di tempo"
; EN: MinPlayersString="Minimum Players (bots)"
MinPlayersString="Minimo giocatori (bot)"
; EN: TranslocatorString="Translocator"
TranslocatorString="traslocatore"
; EN: WeaponStayString="Weapons Stay"
WeaponStayString="Le armi restano"
ColumnHeadings=("Setting","Value")

[Browser_ServerListPageBase]
; EN: AddFavoriteButton.Caption="ADD FAVORITE"
AddFavoriteButton.Caption="AGGIUNGI PREFERITO"
; EN: BackButton.Caption="BACK"
BackButton.Caption="INDIETRO"
; EN: JoinButton.Caption="JOIN"
JoinButton.Caption="ADERIRE"
; EN: RefreshButton.Caption="REFRESH LIST"
RefreshButton.Caption="AGGIORNA LA LISTA"
; EN: SpectateButton.Caption="SPECTATE"
SpectateButton.Caption="SPETTACOLO"

[Browser_ServerListPageBuddy]
; EN: AddBuddyCaption="ADD BUDDY"
AddBuddyCaption="AGGIUNGI AMICO"
; EN: RemoveBuddyCaption="REMOVE BUDDY"
RemoveBuddyCaption="RIMUOVERE IL COMPAGNO"

[Browser_ServerListPageFavorites]
; EN: RemoveFavoriteCaption="REMOVE FAVORITE"
RemoveFavoriteCaption="RIMUOVI PREFERITI"
; EN: AddIPCaption="ADD IP"
AddIPCaption="AGGIUNGI IP"
; EN: RePingCaption="RE-PING LIST"
RePingCaption="LISTA DI RIPETIZIONE"

[Browser_ServerListPageMS]
; EN: QueryFinHead="Query Complete! Received: "
QueryFinHead="Query completata! Ricevuto: "
; EN: QueryFinTail=" Servers"
QueryFinTail=" Server"
; EN: PingRecvString="Pinging Servers"
PingRecvString="Server di ping"
; EN: MustUpgradeString="Upgrade available. Please refresh the News page."
MustUpgradeString="Aggiornamento disponibile. Aggiorna la pagina delle notizie."
; EN: RefreshFinHead="Pinging Complete! "
RefreshFinHead="Ping completato! "
; EN: RefreshFinMid=" Servers, "
RefreshFinMid=" server, "
; EN: RefreshFinTail=" Players"
RefreshFinTail=" Giocatori"
; EN: RePingServersCaption="RE-PING LIST"
RePingServersCaption="LISTA DI RIPETIZIONE"
; EN: RefreshCaption="REFRESH LIST"
RefreshCaption="AGGIORNA LA LISTA"

[Browser_ServerListPageMSCustom]
; EN: MyGameTypeLabel.Caption="Game Type"
MyGameTypeLabel.Caption="Tipo di gioco"

[Browser_ServersList]
IconDescriptions=("Passworded","Stats Enabled","Latest Version","Listen Server","Instagib","Standard Server","UT Classic")
ColumnHeadings=(,"Server Name","Map","Players","Ping")

[DefaultCrosshairs]
; EN: Crosshair=((FriendlyName="Cross (1)"),(FriendlyName="Cross (2)"),(FriendlyName="Cross (3)"),(FriendlyName="Cross (4)"),(FriendlyName="Cross (5)"),(FriendlyName="Dot"),(FriendlyName="Pointer"),(FriendlyName="Triad (1)"),(FriendlyName="Triad (2)"),(FriendlyName="Triad (3)"),(FriendlyName="Bracket (1)"),(FriendlyName="Bracket (2)"),(FriendlyName="Circle (1)"),(FriendlyName="Circle (2)"))
Crosshair=((FriendlyName="Croce (1)"),(FriendlyName="Croce (2)"),(FriendlyName="Croce (3)"),(FriendlyName="Croce (4)"),(FriendlyName="Croce (5)"),(FriendlyName="Punto"),(FriendlyName="puntatore"),(FriendlyName="Triade (1)"),(FriendlyName="Triade (2)"),(FriendlyName="Triade (3)"),(FriendlyName="staffa (1)"),(FriendlyName="Staffa (2)"),(FriendlyName="Cerchio (1)"),(FriendlyName="Cerchio (2)"))

[ExtendedConsole]
; EN: AddedCurrentHead="Added Server:"
AddedCurrentHead="Server aggiunto:"
; EN: AddedCurrentTail="To Favorites!"
AddedCurrentTail="Ai preferiti!"
; EN: ServerFullMsg="Server is now full"
ServerFullMsg="Il server è ora pieno"
; EN: SMStateName[0]="Speech Menu"
SMStateName[0]="Menu vocale"
; EN: SMStateName[1]="Voice Chat"
SMStateName[1]="Chat vocale"
; EN: SMStateName[2]="Acknowledge"
SMStateName[2]="Riconoscere"
; EN: SMStateName[3]="Friendly Fire"
SMStateName[3]="Fuoco amico"
; EN: SMStateName[4]="Order"
SMStateName[4]="Ordine"
; EN: SMStateName[5]="Other"
SMStateName[5]="Altro"
; EN: SMStateName[6]="Taunt"
SMStateName[6]="provocazione"
; EN: SMStateName[7]="Taunt Anim"
SMStateName[7]="Animazione provocante"
; EN: SMStateName[8]="Player Select"
SMStateName[8]="Selezione giocatore"
; EN: SMChannelOptions[0]="Join"
SMChannelOptions[0]="Aderire"
; EN: SMChannelOptions[1]="Leave"
SMChannelOptions[1]="Lasciare"
; EN: SMChannelOptions[2]="Talk"
SMChannelOptions[2]="Parlare"
; EN: SMAllString="[ALL]"
SMAllString="[TUTTI]"
; EN: SMMoreString="[MORE]"
SMMoreString="[DI PIÙ]"

[GUIController]
; EN: DesignModeHints=((Key=" Key",Description="                                Description"),(Key=" (F1)",Description="                                View this help screen"),(Key=" Ctrl + Alt + D",Description="                      Toggles design mode"),(Key=" Ctrl + Alt + E",Description="                      Toggles property editor mode"),(Key=" [Ctrl +] H",Description="                          Toggles active/focused info"),(Key=" [Ctrl +] I",Description="                          Toggle interactive mode"),(Key=" [Ctrl +] P",Description="                          Toggles full MenuOwner chains for active/focused"),(Key=" [Ctrl +] C",Description="                          Copy MoveControl position to clipboard"),(Key=" [Ctrl +] X",Description="                          Export MoveControl to clipboard"),(Key=" [Ctrl +] U",Description="                          Refresh the property window in the designer"),(Key=" [Ctrl +] Up/Down/Left/Right",Description="         Reposition MoveControl using arrow keys"),(Key=" [Ctrl +] +/-",Description="                        Resize MoveControl vertically"),(Key=" [Ctrl +] Num+/Num-",Description="                  Resize selected component horizontally"),(Key=" [Ctrl +] WheelUp",Description="                    Set MoveControl to MoveControl's menuowner"),(Key=" [Ctrl +] WheenDown",Description="                  Set MoveControl to MoveControl's focused control"),(Key=" [(Ctrl + Alt) +] MouseX/Y+LMouse",Description="    Reposition MoveControl using mouse"),(Key=" (Shift)",Description="                             Hides all design mode indicators"),(Key=" (Ctrl + Alt)",Description="                        View focus chain"),(Key=" [Ctrl +] Tab",Description="                        Select new MoveControl"),(Key=" [Ctrl +] LMouse",Description="                     Select new MoveControl"))
DesignModeHints=((Key=" Chiave",Description="                                Descrizione"),(Key=" (F1)",Description="                                Visualizza questa schermata di aiuto"),(Key=" Ctrl + Alt + D",Description="                      Attiva/disattiva la modalità di progettazione"),(Key=" Ctrl + Alt + E",Description="                      Attiva/disattiva la modalità dell'editor delle proprietà"),(Key=" [Ctrl +] H",Description="                          Alterna le informazioni attive/concentrate"),(Key=" [Ctrl +] I",Description="                          Attiva/disattiva modalità interattiva"),(Key=" [Ctrl +] P",Description="                          Attiva/disattiva le catene MenuOwner complete per attivo/concentrato"),(Key=" [Ctrl +] Do",Description="                          Copia la posizione di MoveControl negli appunti"),(Key=" [Ctrl +] X",Description="                          Esporta MoveControl negli appunti"),(Key=" [Ctrl +] U",Description="                          Aggiorna la finestra delle proprietà nel designer"),(Key=" [Ctrl +] Su/Giù/Sinistra/Destra",Description="         Riposizionare MoveControl usando i tasti freccia"),(Key=" [Ctrl +] +/-",Description="                        Ridimensiona MoveControl verticalmente"),(Key=" [Ctrl +] Num+/Num-",Description="                  Ridimensiona il componente selezionato orizzontalmente"),(Key=" [Ctrl +] WheelSu",Description="                    Imposta MoveControl sul proprietario del menu di MoveControl"),(Key=" [Ctrl +] QuandoGiù",Description="                  Imposta MoveControl sul controllo focalizzato di MoveControl"),(Key=" [(Ctrl + Alt) +] MouseX/Y+LMuse",Description="    Riposizionare MoveControl usando il mouse"),(Key=" (Spostare)",Description="                             Nasconde tutti gli indicatori della modalità di progettazione"),(Key=" (Ctrl + Alt)",Description="                        Visualizza la catena di messa a fuoco"),(Key=" [Ctrl +] Tab",Description="                        Seleziona il nuovo MoveControl"),(Key=" [Ctrl +] LMouse",Description="                     Seleziona il nuovo MoveControl"))

[GUIQuestionPage]
ButtonNames=("Ok","Cancel","Retry","Continue","Yes","No","Abort","Ignore")

[HudBTeamDeathMatch]
; EN: LinkEstablishedMessage="LINK ESTABLISHED"
LinkEstablishedMessage="LINK STABILITO"

[HudBase]
InstructionFontName="UT2003Fonts.jFontMono800x600"
; EN: LevelActionLoading="LOADING..."
LevelActionLoading="CARICAMENTO IN CORSO..."
; EN: LevelActionPaused="PAUSED"
LevelActionPaused="IN PAUSA"
LevelActionFontName="UT2003Fonts.FontMedium"
; EN: WonMatchPostFix=" won the match!"
WonMatchPostFix=" ha vinto la partita!"
; EN: WaitingToSpawn="Press [Fire] to join the match!"
WaitingToSpawn="Premi [Fuoco] per unirti alla partita!"
; EN: AtMenus="Press [ESC] to close menu"
AtMenus="Premere [ESC] per chiudere il menu"
; EN: YouveWonTheMatch="You've won the match!"
YouveWonTheMatch="Hai vinto la partita!"
; EN: YouveLostTheMatch="You've lost the match."
YouveLostTheMatch="Hai perso la partita."
; EN: NowViewing="Now viewing"
NowViewing="Ora in visualizzazione"
; EN: ScoreText="Score"
ScoreText="Punto"
; EN: InitialViewingString="Press Fire to View a different Player"
InitialViewingString="Premi Fuoco per visualizzare un altro giocatore"
ProgressFontName="UT2003Fonts.FontMedium"
FontArrayNames[0]="UT2003Fonts.FontEurostile37"
FontArrayNames[1]="UT2003Fonts.FontEurostile29"
FontArrayNames[2]="UT2003Fonts.FontEurostile24"
FontArrayNames[3]="UT2003Fonts.FontEurostile21"
FontArrayNames[4]="UT2003Fonts.FontEurostile17"
FontArrayNames[5]="UT2003Fonts.FontEurostile14"
FontArrayNames[6]="UT2003Fonts.FontEurostile12"
FontArrayNames[7]="UT2003Fonts.FontEurostile9"
FontArrayNames[8]="UT2003Fonts.FontSmallText"

[HudCTeamDeathMatch]
; EN: LinkEstablishedMessage="LINK ESTABLISHED"
LinkEstablishedMessage="LINK STABILITO"

[IRCLink]
; EN: InvalidAddressText="Invalid server address, aborting."
InvalidAddressText="Indirizzo del server non valido, interruzione."
; EN: ErrorBindingText="Error binding local port, aborting."
ErrorBindingText="Errore durante il collegamento della porta locale, interruzione."
; EN: ResolveFailedText="Failed to resolve server address, aborting."
ResolveFailedText="Impossibile risolvere l'indirizzo del server, interruzione."
; EN: ConnectedText="Connected."
ConnectedText="Collegato."
; EN: ConnectingToText="Connecting to"
ConnectingToText="Connessione a"
; EN: TimeOutError="Timeout connecting to server."
TimeOutError="Timeout connessione al server."
; EN: InviteString="invites you to join"
InviteString="ti invita a partecipare"
; EN: NickInUseText="Nickname Already In Use"
NickInUseText="Soprannome già in uso"
; EN: NickInvalidText="Nickname Is Invalid"
NickInvalidText="Il soprannome non è valido"

[IRC_NewNick]
; EN: NewNickEntry.Caption="New Nickname: "
NewNickEntry.Caption="Nuovo soprannome: "
; EN: OkButton.Caption="OK"
OkButton.Caption="ok"

[IRC_Page]
; EN: HasLeftText="has left"
HasLeftText="se n'è andato"
; EN: HasJoinedText="has joined"
HasJoinedText="ha aderito"
; EN: WasKickedByText="was kicked by"
WasKickedByText="è stato preso a calci da"
; EN: NowKnownAsText="is now known as"
NowKnownAsText="è ora conosciuto come"
; EN: QuitText="Quit"
QuitText="Uscire"
; EN: SetsModeText="sets mode"
SetsModeText="imposta la modalità"
; EN: NewTopicText="Topic"
NewTopicText="Argomento"

[IRC_System]
; EN: NotInAChannelText="Not in a channel!"
NotInAChannelText="Non in un canale!"
; EN: KickedFromText="You were kicked from"
KickedFromText="Sei stato cacciato da"
; EN: ByText="by"
ByText="di"
; EN: IsAwayText="is away"
IsAwayText="è via"
; EN: ConnectText="CONNECT"
ConnectText="COLLEGARE"
; EN: DisconnectText="DISCONNECT"
DisconnectText="DISCONNESSIONE"
; EN: MyChannelLabel.Caption="Channel"
MyChannelLabel.Caption="Canale"
; EN: MyJoinChannelButton.Caption="JOIN CHANNEL"
MyJoinChannelButton.Caption="ISCRIVITI AL CANALE"
; EN: MyRemoveChannelButton.Caption="REMOVE CHANNEL"
MyRemoveChannelButton.Caption="RIMUOVI CANALE"
; EN: MyRemoveServerButton.Caption="REMOVE SERVER"
MyRemoveServerButton.Caption="RIMUOVI SERVER"
; EN: MyServerLabel.Caption="Server"
MyServerLabel.Caption="server"

[JoeTest]
; EN: TestButton1.Caption="Close Window"
TestButton1.Caption="Chiudi la finestra"
; EN: TitleText.Caption="Joe's Amazing Test GUI"
TitleText.Caption="L'incredibile GUI di prova di Joe"

[JoeTestPanelA]
; EN: TestButtonA.Caption="Wow"
TestButtonA.Caption="Oh"
; EN: TestButtonB.Caption="Damn"
TestButtonB.Caption="Dannazione"

[ScoreBoardDeathMatch]
; EN: RankText="RANK"
RankText="CLASSIFICA"
; EN: PlayerText="PLAYER"
PlayerText="GIOCATORE"
; EN: PointsText="SCORE"
PointsText="PUNTO"
; EN: TimeText="TIME:"
TimeText="TEMPO:"
PingText="PING:"
; EN: PLText="P/L:"
PLText="P/P:"
; EN: DeathsText="DEATHS"
DeathsText="DECEDUTI"
; EN: AdminText="ADMIN"
AdminText="AMMINISTRAZIONE"
; EN: NetText="NET"
NetText="NETTO"
; EN: FooterText="Elapsed Time:"
FooterText="Tempo trascorso:"
; EN: MatchIDText="UT2004 Stats Match ID"
MatchIDText="Statistiche UT2004 ID partita"
; EN: OutText="OUT"
OutText="FUORI"
; EN: OutFireText="   You are OUT. Fire to view other players."
OutFireText="   Sei fuori. Spara per vedere gli altri giocatori."
; EN: ReadyText="READY"
ReadyText="PRONTO"
; EN: NotReadyText="NOT RDY"
NotReadyText="NON RDY"
; EN: SkillLevel[0]="NOVICE"
SkillLevel[0]="NOVIZIO"
; EN: SkillLevel[1]="AVERAGE"
SkillLevel[1]="MEDIA"
; EN: SkillLevel[2]="EXPERIENCED"
SkillLevel[2]="ESPERTO"
; EN: SkillLevel[3]="SKILLED"
SkillLevel[3]="ABILITA'"
; EN: SkillLevel[4]="ADEPT"
SkillLevel[4]="ABILE"
; EN: SkillLevel[5]="MASTERFUL"
SkillLevel[5]="MAGISTRALE"
; EN: SkillLevel[6]="INHUMAN"
SkillLevel[6]="disumano"
; EN: SkillLevel[7]="GODLIKE"
SkillLevel[7]="PIACEVOLE"
; EN: MaxLives="MAX LIVES:"
MaxLives="VITA MASSIMA:"
; EN: FragLimit="FRAG LIMIT:"
FragLimit="LIMITE FRAGOLA:"
FPH="PPH"
; EN: GameType="GAME"
GameType="GIOCO"
MapName=" in "
; EN: Restart="   You were killed. Press Fire to respawn!"
Restart="   Sei stato ucciso. Premi il fuoco per rinascere!"
; EN: Continue=" Press [Fire] to continue!"
Continue=" Premi [Fuoco] per continuare!"
; EN: Ended="The match has ended."
Ended="La partita è finita."
; EN: TimeLimit="REMAINING TIME:"
TimeLimit="TEMPO RIMANENTE:"
Spacer=" "

[ScoreBoardTeamDeathMatch]
; EN: FragLimit="SCORE LIMIT:"
FragLimit="LIMITE PUNTEGGIO:"

[ServerBrowser]
; EN: MutantTypeName="Mutant"
MutantTypeName="mutante"
; EN: InvasionTypeName="Invasion"
InvasionTypeName="Invasione"
; EN: LMSTypeName="Last Man Standing"
LMSTypeName="L'ultimo uomo in piedi"
MutantType="xMutantGame"
; EN: InvasionType="Invasion"
InvasionType="Invasione"
LMSType="xLastManStanding"
; EN: MyBRServerListPage.PageCaption="Bombing Run"
MyBRServerListPage.PageCaption="Corsa di bombardamento"
; EN: MyBuddiesPage.PageCaption="Buddies"
MyBuddiesPage.PageCaption="Amici"
MyCTFServerListPage.PageCaption="CTF"
; EN: MyCustomServerListPage.PageCaption="Custom"
MyCustomServerListPage.PageCaption="Costume"
MyDMServerListPage.PageCaption="DM"
; EN: MyDomServerListPage.PageCaption="Double Dom"
MyDomServerListPage.PageCaption="Doppie Dom"
; EN: MyFavoritesPage.PageCaption="Favorites"
MyFavoritesPage.PageCaption="preferiti"
; EN: MyIRCPage.PageCaption="Chat"
MyIRCPage.PageCaption="Chiacchierata"
MyLANPage.PageCaption="LAN"
; EN: MyMOTDPage.PageCaption="News"
MyMOTDPage.PageCaption="Notizia"
; EN: MyPrefsPage.PageCaption="Filter"
MyPrefsPage.PageCaption="Filtro"
MyTDMServerListPage.PageCaption="Team DM"
; EN: ServerBrowserHeader.Caption="Server Browser"
ServerBrowserHeader.Caption="Browser del server"

[Tab_AdminPlayerList]
; EN: AdminPlayerBan.Caption="Ban"
AdminPlayerBan.Caption="Bandire"
; EN: AdminPlayerBan.Hint="Ban this player"
AdminPlayerBan.Hint="Banna questo giocatore"
; EN: AdminPlayerKick.Caption="Kick"
AdminPlayerKick.Caption="Calcio"
; EN: AdminPlayerKick.Hint="Kick this Player"
AdminPlayerKick.Hint="Dai un calcio a questo giocatore"

[Tab_AudioSettings]
; EN: AudioModes[0]="Software 3D Audio"
AudioModes[0]="Software Audio 3D"
; EN: AudioModes[1]="Hardware 3D Audio"
AudioModes[1]="Audio 3D hardware"
; EN: AudioModes[2]="Hardware 3D Audio + EAX"
AudioModes[2]="Audio 3D hardware + EAX"
; EN: AudioModes[3]="Safe Mode"
AudioModes[3]="Modalità sicura"
; EN: VoiceModes[0]="All"
VoiceModes[0]="Tutto"
; EN: VoiceModes[1]="No auto-taunts"
VoiceModes[1]="Niente provocazioni automatiche"
; EN: VoiceModes[2]="No taunts"
VoiceModes[2]="niente scherni"
; EN: VoiceModes[3]="None"
VoiceModes[3]="Nessuno"
; EN: AnnounceModes[0]="None"
AnnounceModes[0]="Nessuno"
; EN: AnnounceModes[1]="Minimal"
AnnounceModes[1]="Minimo"
; EN: AnnounceModes[2]="All"
AnnounceModes[2]="Tutto"
; EN: AudioAnnounce.Caption="Announcements"
AudioAnnounce.Caption="Annunci"
; EN: AudioAnnounce.Hint="Adjusts the amount of in-game announcements."
AudioAnnounce.Hint="Regola la quantità di annunci di gioco."
; EN: AudioAnnouncerPack.Caption="Announcer Voice"
AudioAnnouncerPack.Caption="Voce dell'annunciatore"
; EN: AudioAnnouncerPack.Hint="Select the Announcer for tonight's game."
AudioAnnouncerPack.Hint="Seleziona l'annunciatore per la partita di stasera."
; EN: AudioAutoTaunt.Caption="Auto-Taunt"
AudioAutoTaunt.Caption="Auto-provocazione"
; EN: AudioAutoTaunt.Hint="Enables your in-game player to automatically taunt opponents."
AudioAutoTaunt.Hint="Consente al tuo giocatore di gioco di schernire automaticamente gli avversari."
; EN: AudioEffectsVolumeLabel.Caption="Effects Volume"
AudioEffectsVolumeLabel.Caption="Volume effetti"
; EN: AudioEffectsVolumeSlider.Hint="Changes the volume of all in game sound effects."
AudioEffectsVolumeSlider.Hint="Cambia il volume di tutti gli effetti sonori del gioco."
; EN: AudioLowDetail.Caption="Low Sound Detail"
AudioLowDetail.Caption="Dettagli del suono basso"
; EN: AudioLowDetail.Hint="Lowers quality of sound."
AudioLowDetail.Hint="Riduce la qualità del suono."
; EN: AudioMatureTaunts.Caption="Mature Taunts"
AudioMatureTaunts.Caption="provocazioni mature"
; EN: AudioMatureTaunts.Hint="Enables off-color commentary."
AudioMatureTaunts.Hint="Consente il commento fuori colore."
; EN: AudioMessageBeep.Caption="Message Beep"
AudioMessageBeep.Caption="Segnale acustico"
; EN: AudioMessageBeep.Hint="Enables a beep when receiving a text message from other players."
AudioMessageBeep.Hint="Abilita un segnale acustico quando si riceve un messaggio di testo da altri giocatori."
; EN: AudioMode.Caption="Audio Mode"
AudioMode.Caption="Modalità audio"
; EN: AudioMode.Hint="Changes the audio system mode."
AudioMode.Hint="Modifica la modalità del sistema audio."
; EN: AudioMusicVolumeLabel.Caption="Music Volume"
AudioMusicVolumeLabel.Caption="Volume musica"
; EN: AudioMusicVolumeSlider.Hint="Changes the volume of the background music."
AudioMusicVolumeSlider.Hint="Modifica il volume della musica di sottofondo."
; EN: AudioPlayVoices.Caption="Play Voices"
AudioPlayVoices.Caption="Riproduci voci"
; EN: AudioPlayVoices.Hint="Defines the types of voice messages to play."
AudioPlayVoices.Hint="Definisce i tipi di messaggi vocali da riprodurre."
; EN: AudioReverseStereo.Caption="Reverse Stereo"
AudioReverseStereo.Caption="Stereo inverso"
; EN: AudioReverseStereo.Hint="Reverses the left and right audio channels."
AudioReverseStereo.Hint="Inverte i canali audio sinistro e destro."
; EN: AudioVoiceVolumeLabel.Caption="Announcer Volume"
AudioVoiceVolumeLabel.Caption="Volume dell'annunciatore"
; EN: AudioVoiceVolumeSlider.Hint="Changes the volume of all in game voice messages."
AudioVoiceVolumeSlider.Hint="Modifica il volume di tutti i messaggi vocali del gioco."

[Tab_ControlSettings]
; EN: Bindings=((KeyLabel="Movement"),(KeyLabel="Forward"),(KeyLabel="Backward"),(KeyLabel="Strafe Left"),(KeyLabel="Strafe Right"),(KeyLabel="Jump"),(KeyLabel="Walk"),(KeyLabel="Crouch"),(KeyLabel="Strafe Toggle"),(KeyLabel="Looking"),(KeyLabel="Turn Left"),(KeyLabel="Turn Right"),(KeyLabel="Look Up"),(KeyLabel="Look Down"),(KeyLabel="Center View"),(KeyLabel="Weapons"),(KeyLabel="Fire"),(KeyLabel="Alt-Fire"),(KeyLabel="Throw Weapon"),(KeyLabel="Best Weapon"),(KeyLabel="Next Weapon"),(KeyLabel="Prev Weapon"),(KeyLabel="Last Weapon"),(KeyLabel="Weapon Selection"),(KeyLabel="Super Weapon"),(KeyLabel="Shield Gun"),(KeyLabel="Assault Rifle"),(KeyLabel="Bio-Rifle"),(KeyLabel="Shock Rifle"),(KeyLabel="Link Gun"),(KeyLabel="Minigun"),(KeyLabel="Flak Cannon"),(KeyLabel="Rocket Launcher"),(KeyLabel="Lightning Rifle"),(KeyLabel="Translocator"),(KeyLabel="Communication"),(KeyLabel="Say"),(KeyLabel="Team Say"),(KeyLabel="Speech Menu"),(KeyLabel="Taunts"),(KeyLabel="Pelvic Thrust"),(KeyLabel="Ass Smack"),(KeyLabel="Throat Cut"),(KeyLabel="Hud"),(KeyLabel="Grow Hud"),(KeyLabel="Shrink Hud"),(KeyLabel="Miscellaneous"),(KeyLabel="Pause"),(KeyLabel="Screenshot"),(KeyLabel="Menu"),(KeyLabel="ScoreBoard"),(KeyLabel="ScoreBoard Toggle"),(KeyLabel="In Game Chat"),(KeyLabel="Server Info"))
Bindings=((KeyLabel="Movimento"),(KeyLabel="Inoltrare"),(KeyLabel="indietro"),(KeyLabel="Mitragliare a sinistra"),(KeyLabel="Mitraglia a destra"),(KeyLabel="Salto"),(KeyLabel="Camminare"),(KeyLabel="accovacciato"),(KeyLabel="Commutatore di mitragliamento"),(KeyLabel="Guardare"),(KeyLabel="Girare a sinistra"),(KeyLabel="Girare a destra"),(KeyLabel="Cercare"),(KeyLabel="Guarda giù"),(KeyLabel="Vista centrale"),(KeyLabel="Armi"),(KeyLabel="Fuoco"),(KeyLabel="Alt-Fuoco"),(KeyLabel="Lancia arma"),(KeyLabel="Miglior arma"),(KeyLabel="Prossima arma"),(KeyLabel="Arma precedente"),(KeyLabel="Ultima arma"),(KeyLabel="Selezione dell'arma"),(KeyLabel="Super arma"),(KeyLabel="Pistola scudo"),(KeyLabel="Fucile d'assalto"),(KeyLabel="Bio-Fucile"),(KeyLabel="Fucile d'urto"),(KeyLabel="Collegamento pistola"),(KeyLabel="Mitragliatrice"),(KeyLabel="Cannone Flak"),(KeyLabel="Lanciarazzi"),(KeyLabel="Fucile a fulmine"),(KeyLabel="traslocatore"),(KeyLabel="Comunicazione"),(KeyLabel="Dire"),(KeyLabel="Team Say"),(KeyLabel="Menu vocale"),(KeyLabel="provocazioni"),(KeyLabel="Spinta pelvica"),(KeyLabel="sculacciata"),(KeyLabel="Taglio della gola"),(KeyLabel="Hud"),(KeyLabel="crescere hud"),(KeyLabel="Riduci Hud"),(KeyLabel="Varie"),(KeyLabel="Pausa"),(KeyLabel="Immagine dello schermo"),(KeyLabel="Menù"),(KeyLabel="tabellone segnapunti"),(KeyLabel="Commutatore tabellone segnapunti"),(KeyLabel="Nella chat di gioco"),(KeyLabel="Informazioni sul server"))
Labels=("Movement","Forward","Backward","Strafe Left","Strafe Right","Jump","Walk","Crouch","Strafe Toggle","Looking","Turn Left","Turn Right","Look Up","Look Down","Center View","Weapons","Fire","Alt-Fire","Throw Weapon","Best Weapon","Next Weapon","Prev Weapon","Last Weapon","Weapon Selection","Super Weapon","Shield Gun","Assault Rifle","Bio-Rifle","Shock Rifle","Link Gun","Minigun","Flak Cannon","Rocket Launcher","Lightning Rifle","Translocator","Communication","Say","Team Say","Speech Menu","Taunts","Pelvic Thrust","Ass Smack","Throat Cut","Hud","Grow Hud","Shrink Hud","Miscellaneous","Pause","Screenshot","Menu","ScoreBoard","ScoreBoard Toggle","In Game Chat","Server Info")
Header="["
; EN: Footer="] Perform this action "
Footer="] Esegui questa azione "
; EN: KeyConfigAliasLabel.Caption="Action"
KeyConfigAliasLabel.Caption="Azione"
; EN: KeyConfigAliasLabel2.Caption="Key 1"
KeyConfigAliasLabel2.Caption="Tasto 1"
; EN: KeyConfigAliasLabel3.Caption="Key 2"
KeyConfigAliasLabel3.Caption="Tasto 2"
; EN: KeyConfigKeyList.Hint="Select Control to config"
KeyConfigKeyList.Hint="Seleziona Controllo per configurare"
; EN: KeyResetButton.Caption="RESET"
KeyResetButton.Caption="RIPRISTINA"
; EN: KeyResetButton.Hint="Reset keys to default values"
KeyResetButton.Hint="Ripristina le chiavi ai valori predefiniti"

[Tab_DetailSettings]
; EN: DetailLevels[0]="Lowest"
DetailLevels[0]="più basso"
; EN: DetailLevels[1]="Lower"
DetailLevels[1]="Inferiore"
; EN: DetailLevels[2]="Low"
DetailLevels[2]="Basso"
; EN: DetailLevels[3]="Normal"
DetailLevels[3]="Normale"
; EN: DetailLevels[4]="High"