[AdminPlayerList]
ColumnHeadings=("Player Name","Unique ID","IP")

[Browser_AddBuddy]
; EN: AddBuddyDesc.Caption="Add Buddy"
AddBuddyDesc.Caption="Adicionar amigo"
; EN: BuddyEntryBox.Caption="Buddy Name: "
BuddyEntryBox.Caption="Nome do amigo: "
; EN: CancelButton.Caption="CANCEL"
CancelButton.Caption="CANCELAR"
OkButton.Caption="OK"

[Browser_BuddyList]
ColumnHeadings=("Buddy Name")

[Browser_IRC]
; EN: SystemLabel="System"
SystemLabel="Sistema"
; EN: LeaveChannelCaption="LEAVE CHANNEL"
LeaveChannelCaption="SAIR DO CANAL"
; EN: LeavePrivateCaptionHead="CLOSE "
LeavePrivateCaptionHead="FECHAR "
; EN: ChooseNewNickText="Choose A New Chat Nickname"
ChooseNewNickText="Escolha um novo apelido para o bate-papo"
; EN: MyBackButton.Caption="BACK"
MyBackButton.Caption="DE VOLTA"
; EN: MyChangeNickButton.Caption="CHANGE NICK"
MyChangeNickButton.Caption="MUDAR NICK"

[Browser_IconKey]
; EN: DialogText.Caption="Server Icon Key"
DialogText.Caption="Chave do ícone do servidor"
OkButton.Caption="OK"

[Browser_MOTD]
VersionString="Ver."
; EN: MyBackButton.Caption="BACK"
MyBackButton.Caption="DE VOLTA"
; EN: MyRefreshButton.Caption="REFRESH"
MyRefreshButton.Caption="ATUALIZAR"
; EN: MyUpgradeButton.Caption="UPGRADE"
MyUpgradeButton.Caption="MELHORIA"

[Browser_OpenIP]
; EN: CancelButton.Caption="CANCEL"
CancelButton.Caption="CANCELAR"
; EN: IpEntryBox.Caption="IP Address: "
IpEntryBox.Caption="Endereço de IP: "
OkButton.Caption="OK"
; EN: OpenIPDesc.Caption="Enter New IP Address"
OpenIPDesc.Caption="Digite o novo endereço IP"

[Browser_Page]
; EN: StartQueryString="Querying Master Server"
StartQueryString="Consultando o servidor mestre"
; EN: AuthFailString="Authentication Failed"
AuthFailString="A autenticação falhou"
; EN: ConnFailString="Connection Failed - Retrying"
ConnFailString="Falha na conexão - Tentando novamente"
; EN: ConnTimeoutString="Connection Timed Out"
ConnTimeoutString="Tempo de conexão esgotado"
; EN: QueryCompleteString="Query Complete!"
QueryCompleteString="Consulta concluída!"
; EN: RefreshCompleteString="Refresh Complete!"
RefreshCompleteString="Atualização completa!"
; EN: ReadyString="Ready"
ReadyString="Preparar"

[Browser_PlayersList]
ColumnHeadings=("Player Name","Score","Stats ID","Ping")

[Browser_Prefs]
; EN: ViewStatsStrings[0]="Any Servers"
ViewStatsStrings[0]="Qualquer servidor"
; EN: ViewStatsStrings[1]="Only Stats Servers"
ViewStatsStrings[1]="Apenas servidores de estatísticas"
; EN: ViewStatsStrings[2]="No Stats Servers"
ViewStatsStrings[2]="Nenhum servidor de estatísticas"
; EN: MutatorModeStrings[0]="Any Mutators"
MutatorModeStrings[0]="Qualquer mutador"
; EN: MutatorModeStrings[1]="No Mutators"
MutatorModeStrings[1]="Sem mutadores"
; EN: MutatorModeStrings[2]="This Mutator"
MutatorModeStrings[2]="Este mutador"
; EN: MutatorModeStrings[3]="Not This Mutator"
MutatorModeStrings[3]="Não é este mutador"
; EN: WeaponStayStrings[0]="Any Servers"
WeaponStayStrings[0]="Qualquer servidor"
; EN: WeaponStayStrings[1]="Only Weapon Stay Servers"
WeaponStayStrings[1]="Apenas servidores de permanência de arma"
; EN: WeaponStayStrings[2]="No Weapon Stay Servers"
WeaponStayStrings[2]="Nenhum servidor de permanência de arma"
; EN: TranslocatorStrings[0]="Any Servers"
TranslocatorStrings[0]="Qualquer servidor"
; EN: TranslocatorStrings[1]="Only Translocator Servers"
TranslocatorStrings[1]="Apenas Servidores Translocator"
; EN: TranslocatorStrings[2]="No Translocator Servers"
TranslocatorStrings[2]="Sem Servidores Translocator"
; EN: CustomQuery.Caption="Custom Query"
CustomQuery.Caption="Consulta Personalizada"
; EN: FilterTitle.Caption="Server Filtering Options:"
FilterTitle.Caption="Opções de filtragem de servidor:"
MaxGamespeed.Caption="Max"
; EN: MinGamespeed.Caption="Game Speed Min"
MinGamespeed.Caption="Velocidade mínima do jogo"
; EN: MutatorModeCombo.Caption="Mutators"
MutatorModeCombo.Caption="Mutadores"
; EN: MyBackButton.Caption="BACK"
MyBackButton.Caption="DE VOLTA"
; EN: MyKeyButton.Caption="ICON KEY"
MyKeyButton.Caption="CHAVE DE ÍCONE"
; EN: NoBotServersCheckBox.Caption="No Servers With Bots"
NoBotServersCheckBox.Caption="Nenhum servidor com bots"
; EN: NoEmptyCheckBox.Caption="No Empty Servers"
NoEmptyCheckBox.Caption="Nenhum servidor vazio"
; EN: NoFullCheckBox.Caption="No Full Servers"
NoFullCheckBox.Caption="Sem servidores completos"
; EN: NoPasswdCheckBox.Caption="No Passworded Servers"
NoPasswdCheckBox.Caption="Nenhum servidor com senha"
; EN: OnlyStandardCheckBox.Caption="Only Standard Servers"
OnlyStandardCheckBox.Caption="Apenas servidores padrão"
; EN: StatsViewCombo.Caption="Stats Servers"
StatsViewCombo.Caption="Servidores de estatísticas"
TranslocatorCombo.Caption="Translocator"
WeaponStayCombo.Caption="WeaponStay"

[Browser_RulesList]
; EN: TrueString="Enabled"
TrueString="Habilitado"
; EN: FalseString="Disabled"
FalseString="Desabilitado"
; EN: ServerModeString="Server Mode"
ServerModeString="Modo Servidor"
; EN: DedicatedString="Dedicated"
DedicatedString="dedicada"
; EN: NonDedicatedString="Non-Dedicated"
NonDedicatedString="Não Dedicado"
; EN: AdminNameString="Server Admin"
AdminNameString="Admin do servidor"
AdminEmailString="Admin Email"
; EN: PasswordString="Requires Password"
PasswordString="Requer senha"
; EN: GameStatsString="UT2004 Stats"
GameStatsString="Estatísticas UT2004"
; EN: GameSpeedString="Game Speed"
GameSpeedString="Velocidade do jogo"
; EN: MutatorString="Mutator"
MutatorString="Mutador"
; EN: BalanceTeamsString="Bots Balance Teams"
BalanceTeamsString="Equipes de equilíbrio de bots"
; EN: PlayersBalanceTeamsString="Balance Teams"
PlayersBalanceTeamsString="Equipes de equilíbrio"
; EN: FriendlyFireString="Friendly Fire"
FriendlyFireString="Fogo amigo"
; EN: GoalScoreString="Goal Score"
GoalScoreString="Pontuação do gol"
; EN: TimeLimitString="Time Limit"
TimeLimitString="Limite de tempo"
; EN: MinPlayersString="Minimum Players (bots)"
MinPlayersString="Jogadores mínimos (bots)"
TranslocatorString="Translocator"
; EN: WeaponStayString="Weapons Stay"
WeaponStayString="Armas ficam"
ColumnHeadings=("Setting","Value")

[Browser_ServerListPageBase]
; EN: AddFavoriteButton.Caption="ADD FAVORITE"
AddFavoriteButton.Caption="ADICIONAR AOS FAVORITOS"
; EN: BackButton.Caption="BACK"
BackButton.Caption="DE VOLTA"
; EN: JoinButton.Caption="JOIN"
JoinButton.Caption="JUNTE"
; EN: RefreshButton.Caption="REFRESH LIST"
RefreshButton.Caption="ATUALIZAR LISTA"
; EN: SpectateButton.Caption="SPECTATE"
SpectateButton.Caption="OLHAR"

[Browser_ServerListPageBuddy]
; EN: AddBuddyCaption="ADD BUDDY"
AddBuddyCaption="ADICIONAR AMIGO"
; EN: RemoveBuddyCaption="REMOVE BUDDY"
RemoveBuddyCaption="REMOVER BUDDY"

[Browser_ServerListPageFavorites]
; EN: RemoveFavoriteCaption="REMOVE FAVORITE"
RemoveFavoriteCaption="REMOVER FAVORITO"
; EN: AddIPCaption="ADD IP"
AddIPCaption="ADICIONE IP"
RePingCaption="RE-PING LIST"

[Browser_ServerListPageMS]
; EN: QueryFinHead="Query Complete! Received: "
QueryFinHead="Consulta concluída! Recebido: "
; EN: QueryFinTail=" Servers"
QueryFinTail=" Servidores"
; EN: PingRecvString="Pinging Servers"
PingRecvString="Servidores de ping"
; EN: MustUpgradeString="Upgrade available. Please refresh the News page."
MustUpgradeString="Atualização disponível. Atualize a página de notícias."
; EN: RefreshFinHead="Pinging Complete! "
RefreshFinHead="Ping concluído! "
; EN: RefreshFinMid=" Servers, "
RefreshFinMid=" Servidores, "
; EN: RefreshFinTail=" Players"
RefreshFinTail=" Jogadoras"
RePingServersCaption="RE-PING LIST"
; EN: RefreshCaption="REFRESH LIST"
RefreshCaption="ATUALIZAR LISTA"

[Browser_ServerListPageMSCustom]
; EN: MyGameTypeLabel.Caption="Game Type"
MyGameTypeLabel.Caption="Tipo de jogo"

[Browser_ServersList]
IconDescriptions=("Passworded","Stats Enabled","Latest Version","Listen Server","Instagib","Standard Server","UT Classic")
ColumnHeadings=(,"Server Name","Map","Players","Ping")

[DefaultCrosshairs]
; EN: Crosshair=((FriendlyName="Cross (1)"),(FriendlyName="Cross (2)"),(FriendlyName="Cross (3)"),(FriendlyName="Cross (4)"),(FriendlyName="Cross (5)"),(FriendlyName="Dot"),(FriendlyName="Pointer"),(FriendlyName="Triad (1)"),(FriendlyName="Triad (2)"),(FriendlyName="Triad (3)"),(FriendlyName="Bracket (1)"),(FriendlyName="Bracket (2)"),(FriendlyName="Circle (1)"),(FriendlyName="Circle (2)"))
Crosshair=((FriendlyName="Cruz (1)"),(FriendlyName="Cruz (2)"),(FriendlyName="Cruz (3)"),(FriendlyName="Cruz (4)"),(FriendlyName="Cruz (5)"),(FriendlyName="Ponto"),(FriendlyName="Pointer"),(FriendlyName="Tríade (1)"),(FriendlyName="Tríade (2)"),(FriendlyName="Tríade (3)"),(FriendlyName="Suporte (1)"),(FriendlyName="Suporte (2)"),(FriendlyName="Círculo (1)"),(FriendlyName="Círculo (2)"))

[ExtendedConsole]
; EN: AddedCurrentHead="Added Server:"
AddedCurrentHead="Servidor adicionado:"
; EN: AddedCurrentTail="To Favorites!"
AddedCurrentTail="Para Favoritos!"
; EN: ServerFullMsg="Server is now full"
ServerFullMsg="O servidor agora está cheio"
; EN: SMStateName[0]="Speech Menu"
SMStateName[0]="Menu de fala"
; EN: SMStateName[1]="Voice Chat"
SMStateName[1]="Chat de voz"
; EN: SMStateName[2]="Acknowledge"
SMStateName[2]="Reconhecer"
; EN: SMStateName[3]="Friendly Fire"
SMStateName[3]="Fogo amigo"
; EN: SMStateName[4]="Order"
SMStateName[4]="Pedido"
; EN: SMStateName[5]="Other"
SMStateName[5]="De outros"
; EN: SMStateName[6]="Taunt"
SMStateName[6]="Provocação"
; EN: SMStateName[7]="Taunt Anim"
SMStateName[7]="Provocar Anim"
; EN: SMStateName[8]="Player Select"
SMStateName[8]="Seleção de jogador"
; EN: SMChannelOptions[0]="Join"
SMChannelOptions[0]="Juntar"
; EN: SMChannelOptions[1]="Leave"
SMChannelOptions[1]="Sair"
; EN: SMChannelOptions[2]="Talk"
SMChannelOptions[2]="Falar"
; EN: SMAllString="[ALL]"
SMAllString="[TUDO]"
; EN: SMMoreString="[MORE]"
SMMoreString="[MAIS]"

[GUIController]
; EN: DesignModeHints=((Key=" Key",Description="                                Description"),(Key=" (F1)",Description="                                View this help screen"),(Key=" Ctrl + Alt + D",Description="                      Toggles design mode"),(Key=" Ctrl + Alt + E",Description="                      Toggles property editor mode"),(Key=" [Ctrl +] H",Description="                          Toggles active/focused info"),(Key=" [Ctrl +] I",Description="                          Toggle interactive mode"),(Key=" [Ctrl +] P",Description="                          Toggles full MenuOwner chains for active/focused"),(Key=" [Ctrl +] C",Description="                          Copy MoveControl position to clipboard"),(Key=" [Ctrl +] X",Description="                          Export MoveControl to clipboard"),(Key=" [Ctrl +] U",Description="                          Refresh the property window in the designer"),(Key=" [Ctrl +] Up/Down/Left/Right",Description="         Reposition MoveControl using arrow keys"),(Key=" [Ctrl +] +/-",Description="                        Resize MoveControl vertically"),(Key=" [Ctrl +] Num+/Num-",Description="                  Resize selected component horizontally"),(Key=" [Ctrl +] WheelUp",Description="                    Set MoveControl to MoveControl's menuowner"),(Key=" [Ctrl +] WheenDown",Description="                  Set MoveControl to MoveControl's focused control"),(Key=" [(Ctrl + Alt) +] MouseX/Y+LMouse",Description="    Reposition MoveControl using mouse"),(Key=" (Shift)",Description="                             Hides all design mode indicators"),(Key=" (Ctrl + Alt)",Description="                        View focus chain"),(Key=" [Ctrl +] Tab",Description="                        Select new MoveControl"),(Key=" [Ctrl +] LMouse",Description="                     Select new MoveControl"))
DesignModeHints=((Key=" Chave",Description="                                Descrição"),(Key=" (F1)",Description="                                Veja esta tela de ajuda"),(Key=" Ctrl + Alt + D",Description="                      Alterna o modo de design"),(Key=" Ctrl + Alt + E",Description="                      Alterna o modo do editor de propriedades"),(Key=" [Ctrl +] H",Description="                          Alterna informação ativa / focada"),(Key=" [Ctrl +] I",Description="                          Alternar modo interativo"),(Key=" [Ctrl +] P",Description="                          Alterna cadeias de MenuOwner completas para ativo / focado"),(Key=" [Ctrl +] C",Description="                          Copiar a posição do MoveControl para a área de transferência"),(Key=" [Ctrl +] X",Description="                          Exportar MoveControl para a área de transferência"),(Key=" [Ctrl +] U",Description="                          Atualize a janela de propriedades no designer"),(Key=" [Ctrl +] Cima / Baixo / Esquerda / Direita",Description="         Reposicione o controle de movimento usando as teclas de seta"),(Key=" [Ctrl +] +/-",Description="                        Redimensionar MoveControl verticalmente"),(Key=" [Ctrl +] Num + / Num-",Description="                  Redimensionar o componente selecionado horizontalmente"),(Key=" [Ctrl +] WheelUp",Description="                    Defina MoveControl para o proprietário do menu de MoveControl"),(Key=" [Ctrl +] WheenDown",Description="                  Defina MoveControl para o controle focalizado de MoveControl"),(Key=" [(Ctrl + Alt) +] MouseX / Y + LMouse",Description="    Reposicionar o controle de movimento usando o mouse"),(Key=" (Mudança)",Description="                             Oculta todos os indicadores do modo de design"),(Key=" (Ctrl + Alt)",Description="                        Ver a cadeia de foco"),(Key=" [Ctrl +] Tab",Description="                        Selecione o novo MoveControl"),(Key=" [Ctrl +] LMouse",Description="                     Selecione o novo MoveControl"))

[GUIQuestionPage]
ButtonNames=("Ok","Cancel","Retry","Continue","Yes","No","Abort","Ignore")

[HudBTeamDeathMatch]
; EN: LinkEstablishedMessage="LINK ESTABLISHED"
LinkEstablishedMessage="LINK ESTABELECIDO"

[HudBase]
InstructionFontName="UT2003Fonts.jFontMono800x600"
; EN: LevelActionLoading="LOADING..."
LevelActionLoading="CARREGANDO..."
; EN: LevelActionPaused="PAUSED"
LevelActionPaused="PAUSADO"
LevelActionFontName="UT2003Fonts.FontMedium"
; EN: WonMatchPostFix=" won the match!"
WonMatchPostFix=" venceu a partida!"
; EN: WaitingToSpawn="Press [Fire] to join the match!"
WaitingToSpawn="Pressione [Fire] para entrar na partida!"
; EN: AtMenus="Press [ESC] to close menu"
AtMenus="Pressione [ESC] para fechar o menu"
; EN: YouveWonTheMatch="You've won the match!"
YouveWonTheMatch="Você venceu a partida!"
; EN: YouveLostTheMatch="You've lost the match."
YouveLostTheMatch="Você perdeu a partida."
; EN: NowViewing="Now viewing"
NowViewing="Agora vendo"
; EN: ScoreText="Score"
ScoreText="Pontuação"
; EN: InitialViewingString="Press Fire to View a different Player"
InitialViewingString="Pressione Fogo para ver um jogador diferente"
ProgressFontName="UT2003Fonts.FontMedium"
FontArrayNames[0]="UT2003Fonts.FontEurostile37"
FontArrayNames[1]="UT2003Fonts.FontEurostile29"
FontArrayNames[2]="UT2003Fonts.FontEurostile24"
FontArrayNames[3]="UT2003Fonts.FontEurostile21"
FontArrayNames[4]="UT2003Fonts.FontEurostile17"
FontArrayNames[5]="UT2003Fonts.FontEurostile14"
FontArrayNames[6]="UT2003Fonts.FontEurostile12"
FontArrayNames[7]="UT2003Fonts.FontEurostile9"
FontArrayNames[8]="UT2003Fonts.FontSmallText"

[HudCTeamDeathMatch]
; EN: LinkEstablishedMessage="LINK ESTABLISHED"
LinkEstablishedMessage="LINK ESTABELECIDO"

[IRCLink]
; EN: InvalidAddressText="Invalid server address, aborting."
InvalidAddressText="Endereço de servidor inválido, abortando."
; EN: ErrorBindingText="Error binding local port, aborting."
ErrorBindingText="Erro ao vincular a porta local. Abortando."
; EN: ResolveFailedText="Failed to resolve server address, aborting."
ResolveFailedText="Falha ao resolver o endereço do servidor, interrompendo."
; EN: ConnectedText="Connected."
ConnectedText="Conectado."
; EN: ConnectingToText="Connecting to"
ConnectingToText="Conectando à"
; EN: TimeOutError="Timeout connecting to server."
TimeOutError="Tempo limite de conexão com o servidor."
; EN: InviteString="invites you to join"
InviteString="convida você para participar"
; EN: NickInUseText="Nickname Already In Use"
NickInUseText="Apelido já em uso"
; EN: NickInvalidText="Nickname Is Invalid"
NickInvalidText="O apelido é inválido"

[IRC_NewNick]
; EN: NewNickEntry.Caption="New Nickname: "
NewNickEntry.Caption="Novo apelido: "
OkButton.Caption="OK"

[IRC_Page]
; EN: HasLeftText="has left"
HasLeftText="deixou"
; EN: HasJoinedText="has joined"
HasJoinedText="Juntou se, se juntou"
; EN: WasKickedByText="was kicked by"
WasKickedByText="foi chutado por"
; EN: NowKnownAsText="is now known as"
NowKnownAsText="agora é conhecido como"
; EN: QuitText="Quit"
QuitText="Desistir"
; EN: SetsModeText="sets mode"
SetsModeText="modo de conjuntos"
; EN: NewTopicText="Topic"
NewTopicText="Tema"

[IRC_System]
; EN: NotInAChannelText="Not in a channel!"
NotInAChannelText="Não em um canal!"
; EN: KickedFromText="You were kicked from"
KickedFromText="Você foi expulso de"
; EN: ByText="by"
ByText="por"
; EN: IsAwayText="is away"
IsAwayText="está ausente"
; EN: ConnectText="CONNECT"
ConnectText="CONECTAR"
; EN: DisconnectText="DISCONNECT"
DisconnectText="DESCONECTAR"
; EN: MyChannelLabel.Caption="Channel"
MyChannelLabel.Caption="Canal"
; EN: MyJoinChannelButton.Caption="JOIN CHANNEL"
MyJoinChannelButton.Caption="PARTICIPAR DO CANAL"
; EN: MyRemoveChannelButton.Caption="REMOVE CHANNEL"
MyRemoveChannelButton.Caption="REMOVER CANAL"
; EN: MyRemoveServerButton.Caption="REMOVE SERVER"
MyRemoveServerButton.Caption="REMOVER SERVIDOR"
; EN: MyServerLabel.Caption="Server"
MyServerLabel.Caption="Servidor"

[JoeTest]
; EN: TestButton1.Caption="Close Window"
TestButton1.Caption="Janela fechada"
; EN: TitleText.Caption="Joe's Amazing Test GUI"
TitleText.Caption="Amazing Test GUI de Joe"

[JoeTestPanelA]
; EN: TestButtonA.Caption="Wow"
TestButtonA.Caption="Uau"
; EN: TestButtonB.Caption="Damn"
TestButtonB.Caption="Droga"

[ScoreBoardDeathMatch]
; EN: RankText="RANK"
RankText="CLASSIFICAÇÃO"
; EN: PlayerText="PLAYER"
PlayerText="JOGADOR"
; EN: PointsText="SCORE"
PointsText="PONTUAÇÃO"
; EN: TimeText="TIME:"
TimeText="TEMPO:"
PingText="PING:"
; EN: PLText="P/L:"
PLText="P / L:"
; EN: DeathsText="DEATHS"
DeathsText="MORTES"
AdminText="ADMIN"
; EN: NetText="NET"
NetText="INTERNET"
; EN: FooterText="Elapsed Time:"
FooterText="Tempo decorrido:"
MatchIDText="UT2004 Stats Match ID"
; EN: OutText="OUT"
OutText="FORA"
; EN: OutFireText="   You are OUT. Fire to view other players."
OutFireText="   Você está fora. Atire para ver outros jogadores."
; EN: ReadyText="READY"
ReadyText="PRONTO"
; EN: NotReadyText="NOT RDY"
NotReadyText="NÃO RDY"
; EN: SkillLevel[0]="NOVICE"
SkillLevel[0]="NOVATO"
; EN: SkillLevel[1]="AVERAGE"
SkillLevel[1]="MÉDIA"
; EN: SkillLevel[2]="EXPERIENCED"
SkillLevel[2]="COM EXPERIÊNCIA"
; EN: SkillLevel[3]="SKILLED"
SkillLevel[3]="ESPECIALIZADO"
SkillLevel[4]="ADEPT"
; EN: SkillLevel[5]="MASTERFUL"
SkillLevel[5]="MAGISTRAL"
; EN: SkillLevel[6]="INHUMAN"
SkillLevel[6]="DESUMANO"
SkillLevel[7]="GODLIKE"
; EN: MaxLives="MAX LIVES:"
MaxLives="MAX VIDAS:"
FragLimit="FRAG LIMIT:"
FPH="PPH"
; EN: GameType="GAME"
GameType="JOGOS"
; EN: MapName=" in "
MapName=" no "
; EN: Restart="   You were killed. Press Fire to respawn!"
Restart="   Você foi morto. Pressione Fogo para reaparecer!"
; EN: Continue=" Press [Fire] to continue!"
Continue=" Pressione [Fire] para continuar!"
; EN: Ended="The match has ended."
Ended="A partida acabou."
; EN: TimeLimit="REMAINING TIME:"
TimeLimit="TEMPO RESTANTE:"
Spacer=" "

[ScoreBoardTeamDeathMatch]
; EN: FragLimit="SCORE LIMIT:"
FragLimit="LIMITE DE PONTUAÇÃO:"

[ServerBrowser]
; EN: MutantTypeName="Mutant"
MutantTypeName="Mutante"
; EN: InvasionTypeName="Invasion"
InvasionTypeName="Invasão"
; EN: LMSTypeName="Last Man Standing"
LMSTypeName="Último homem de pé"
MutantType="xMutantGame"
; EN: InvasionType="Invasion"
InvasionType="Invasão"
LMSType="xLastManStanding"
; EN: MyBRServerListPage.PageCaption="Bombing Run"
MyBRServerListPage.PageCaption="Bombardeio"
; EN: MyBuddiesPage.PageCaption="Buddies"
MyBuddiesPage.PageCaption="Parceiro"
MyCTFServerListPage.PageCaption="CTF"
; EN: MyCustomServerListPage.PageCaption="Custom"
MyCustomServerListPage.PageCaption="Personalizado"
MyDMServerListPage.PageCaption="DM"
; EN: MyDomServerListPage.PageCaption="Double Dom"
MyDomServerListPage.PageCaption="Dom duplo"
; EN: MyFavoritesPage.PageCaption="Favorites"
MyFavoritesPage.PageCaption="Favoritos"
; EN: MyIRCPage.PageCaption="Chat"
MyIRCPage.PageCaption="Bate-papo"
MyLANPage.PageCaption="LAN"
; EN: MyMOTDPage.PageCaption="News"
MyMOTDPage.PageCaption="Notícia"
; EN: MyPrefsPage.PageCaption="Filter"
MyPrefsPage.PageCaption="Filtro"
; EN: MyTDMServerListPage.PageCaption="Team DM"
MyTDMServerListPage.PageCaption="Equipe DM"
; EN: ServerBrowserHeader.Caption="Server Browser"
ServerBrowserHeader.Caption="Navegador do servidor"

[Tab_AdminPlayerList]
; EN: AdminPlayerBan.Caption="Ban"
AdminPlayerBan.Caption="Banimento"
; EN: AdminPlayerBan.Hint="Ban this player"
AdminPlayerBan.Hint="Banir este jogador"
; EN: AdminPlayerKick.Caption="Kick"
AdminPlayerKick.Caption="Chute"
; EN: AdminPlayerKick.Hint="Kick this Player"
AdminPlayerKick.Hint="Chute este jogador"

[Tab_AudioSettings]
; EN: AudioModes[0]="Software 3D Audio"
AudioModes[0]="Áudio 3D de software"
; EN: AudioModes[1]="Hardware 3D Audio"
AudioModes[1]="Hardware de áudio 3D"
; EN: AudioModes[2]="Hardware 3D Audio + EAX"
AudioModes[2]="Hardware Áudio 3D + EAX"
; EN: AudioModes[3]="Safe Mode"
AudioModes[3]="Modo de segurança"
; EN: VoiceModes[0]="All"
VoiceModes[0]="Tudo"
; EN: VoiceModes[1]="No auto-taunts"
VoiceModes[1]="Sem provocações automáticas"
; EN: VoiceModes[2]="No taunts"
VoiceModes[2]="Sem provocações"
; EN: VoiceModes[3]="None"
VoiceModes[3]="Nenhum"
; EN: AnnounceModes[0]="None"
AnnounceModes[0]="Nenhum"
; EN: AnnounceModes[1]="Minimal"
AnnounceModes[1]="Mínimo"
; EN: AnnounceModes[2]="All"
AnnounceModes[2]="Tudo"
; EN: AudioAnnounce.Caption="Announcements"
AudioAnnounce.Caption="Anúncios"
; EN: AudioAnnounce.Hint="Adjusts the amount of in-game announcements."
AudioAnnounce.Hint="Ajusta a quantidade de anúncios no jogo."
; EN: AudioAnnouncerPack.Caption="Announcer Voice"
AudioAnnouncerPack.Caption="Voz do Locutor"
; EN: AudioAnnouncerPack.Hint="Select the Announcer for tonight's game."
AudioAnnouncerPack.Hint="Selecione o locutor para o jogo desta noite."
; EN: AudioAutoTaunt.Caption="Auto-Taunt"
AudioAutoTaunt.Caption="Auto-provocação"
; EN: AudioAutoTaunt.Hint="Enables your in-game player to automatically taunt opponents."
AudioAutoTaunt.Hint="Permite que seu jogador no jogo provoque os oponentes automaticamente."
; EN: AudioEffectsVolumeLabel.Caption="Effects Volume"
AudioEffectsVolumeLabel.Caption="Volume de efeitos"
; EN: AudioEffectsVolumeSlider.Hint="Changes the volume of all in game sound effects."
AudioEffectsVolumeSlider.Hint="Altera o volume de todos os efeitos sonoros do jogo."
; EN: AudioLowDetail.Caption="Low Sound Detail"
AudioLowDetail.Caption="Detalhe de baixo som"
; EN: AudioLowDetail.Hint="Lowers quality of sound."
AudioLowDetail.Hint="Reduz a qualidade do som."
; EN: AudioMatureTaunts.Caption="Mature Taunts"
AudioMatureTaunts.Caption="Provocações maduras"
; EN: AudioMatureTaunts.Hint="Enables off-color commentary."
AudioMatureTaunts.Hint="Ativa comentários fora de cor."
; EN: AudioMessageBeep.Caption="Message Beep"
AudioMessageBeep.Caption="Sinal sonoro de mensagem"
; EN: AudioMessageBeep.Hint="Enables a beep when receiving a text message from other players."
AudioMessageBeep.Hint="Ativa um bipe ao receber uma mensagem de texto de outros jogadores."
; EN: AudioMode.Caption="Audio Mode"
AudioMode.Caption="Modo de Áudio"
; EN: AudioMode.Hint="Changes the audio system mode."
AudioMode.Hint="Altera o modo do sistema de áudio."
; EN: AudioMusicVolumeLabel.Caption="Music Volume"
AudioMusicVolumeLabel.Caption="Volume da música"
; EN: AudioMusicVolumeSlider.Hint="Changes the volume of the background music."
AudioMusicVolumeSlider.Hint="Altera o volume da música de fundo."
; EN: AudioPlayVoices.Caption="Play Voices"
AudioPlayVoices.Caption="Tocar vozes"
; EN: AudioPlayVoices.Hint="Defines the types of voice messages to play."
AudioPlayVoices.Hint="Define os tipos de mensagens de voz a serem reproduzidas."
; EN: AudioReverseStereo.Caption="Reverse Stereo"
AudioReverseStereo.Caption="Estéreo reverso"
; EN: AudioReverseStereo.Hint="Reverses the left and right audio channels."
AudioReverseStereo.Hint="Inverte os canais de áudio esquerdo e direito."
; EN: AudioVoiceVolumeLabel.Caption="Announcer Volume"
AudioVoiceVolumeLabel.Caption="Volume do locutor"
; EN: AudioVoiceVolumeSlider.Hint="Changes the volume of all in game voice messages."
AudioVoiceVolumeSlider.Hint="Altera o volume de todas as mensagens de voz do jogo."

[Tab_ControlSettings]
; EN: Bindings=((KeyLabel="Movement"),(KeyLabel="Forward"),(KeyLabel="Backward"),(KeyLabel="Strafe Left"),(KeyLabel="Strafe Right"),(KeyLabel="Jump"),(KeyLabel="Walk"),(KeyLabel="Crouch"),(KeyLabel="Strafe Toggle"),(KeyLabel="Looking"),(KeyLabel="Turn Left"),(KeyLabel="Turn Right"),(KeyLabel="Look Up"),(KeyLabel="Look Down"),(KeyLabel="Center View"),(KeyLabel="Weapons"),(KeyLabel="Fire"),(KeyLabel="Alt-Fire"),(KeyLabel="Throw Weapon"),(KeyLabel="Best Weapon"),(KeyLabel="Next Weapon"),(KeyLabel="Prev Weapon"),(KeyLabel="Last Weapon"),(KeyLabel="Weapon Selection"),(KeyLabel="Super Weapon"),(KeyLabel="Shield Gun"),(KeyLabel="Assault Rifle"),(KeyLabel="Bio-Rifle"),(KeyLabel="Shock Rifle"),(KeyLabel="Link Gun"),(KeyLabel="Minigun"),(KeyLabel="Flak Cannon"),(KeyLabel="Rocket Launcher"),(KeyLabel="Lightning Rifle"),(KeyLabel="Translocator"),(KeyLabel="Communication"),(KeyLabel="Say"),(KeyLabel="Team Say"),(KeyLabel="Speech Menu"),(KeyLabel="Taunts"),(KeyLabel="Pelvic Thrust"),(KeyLabel="Ass Smack"),(KeyLabel="Throat Cut"),(KeyLabel="Hud"),(KeyLabel="Grow Hud"),(KeyLabel="Shrink Hud"),(KeyLabel="Miscellaneous"),(KeyLabel="Pause"),(KeyLabel="Screenshot"),(KeyLabel="Menu"),(KeyLabel="ScoreBoard"),(KeyLabel="ScoreBoard Toggle"),(KeyLabel="In Game Chat"),(KeyLabel="Server Info"))
Bindings=((KeyLabel="Movimento"),(KeyLabel="Avançar"),(KeyLabel="Para trás"),(KeyLabel="Strafe Left"),(KeyLabel="Strafe Right"),(KeyLabel="Pular"),(KeyLabel="Andar"),(KeyLabel="Agachar"),(KeyLabel="Strafe Toggle"),(KeyLabel="Procurando"),(KeyLabel="Vire à esquerda"),(KeyLabel="Vire à direita"),(KeyLabel="Olho para cima"),(KeyLabel="Olhar para baixo"),(KeyLabel="Vista central"),(KeyLabel="Armas"),(KeyLabel="Incêndio"),(KeyLabel="Alt-Fire"),(KeyLabel="Atirar arma"),(KeyLabel="Melhor arma"),(KeyLabel="Próxima arma"),(KeyLabel="Arma anterior"),(KeyLabel="Última arma"),(KeyLabel="Seleção de arma"),(KeyLabel="Super Arma"),(KeyLabel="Arma de escudo"),(KeyLabel="Rifle de assalto"),(KeyLabel="Bio-Rifle"),(KeyLabel="Rifle de choque"),(KeyLabel="Link Gun"),(KeyLabel="Minigun"),(KeyLabel="Flak Cannon"),(KeyLabel="Lançador de foguetes"),(KeyLabel="Rifle Relâmpago"),(KeyLabel="Translocator"),(KeyLabel="Comunicação"),(KeyLabel="Dizer"),(KeyLabel="Team Say"),(KeyLabel="Menu de fala"),(KeyLabel="Provocações"),(KeyLabel="Impulso pélvico"),(KeyLabel="Ass Smack"),(KeyLabel="Corte de garganta"),(KeyLabel="Hud"),(KeyLabel="Grow Hud"),(KeyLabel="Shrink Hud"),(KeyLabel="Diversos"),(KeyLabel="Pausa"),(KeyLabel="Captura de tela"),(KeyLabel="Cardápio"),(KeyLabel="Placar"),(KeyLabel="ScoreBoard Toggle"),(KeyLabel="Bate-papo no jogo"),(KeyLabel="Informação do servidor"))
Labels=("Movement","Forward","Backward","Strafe Left","Strafe Right","Jump","Walk","Crouch","Strafe Toggle","Looking","Turn Left","Turn Right","Look Up","Look Down","Center View","Weapons","Fire","Alt-Fire","Throw Weapon","Best Weapon","Next Weapon","Prev Weapon","Last Weapon","Weapon Selection","Super Weapon","Shield Gun","Assault Rifle","Bio-Rifle","Shock Rifle","Link Gun","Minigun","Flak Cannon","Rocket Launcher","Lightning Rifle","Translocator","Communication","Say","Team Say","Speech Menu","Taunts","Pelvic Thrust","Ass Smack","Throat Cut","Hud","Grow Hud","Shrink Hud","Miscellaneous","Pause","Screenshot","Menu","ScoreBoard","ScoreBoard Toggle","In Game Chat","Server Info")
Header="["
; EN: Footer="] Perform this action "
Footer="] Execute esta ação "
; EN: KeyConfigAliasLabel.Caption="Action"
KeyConfigAliasLabel.Caption="Açao"
; EN: KeyConfigAliasLabel2.Caption="Key 1"
KeyConfigAliasLabel2.Caption="Chave 1"
; EN: KeyConfigAliasLabel3.Caption="Key 2"
KeyConfigAliasLabel3.Caption="Chave 2"
; EN: KeyConfigKeyList.Hint="Select Control to config"
KeyConfigKeyList.Hint="Selecione o controle para configurar"
; EN: KeyResetButton.Caption="RESET"
KeyResetButton.Caption="REDEFINIR"
; EN: KeyResetButton.Hint="Reset keys to default values"
KeyResetButton.Hint="Redefinir as chaves para os valores padrão"

[Tab_DetailSettings]
; EN: DetailLevels[0]="Lowest"
DetailLevels[0]="O mais baixo"
; EN: DetailLevels[1]="Lower"
DetailLevels[1]="Diminuir"
; EN: DetailLevels[2]="Low"
DetailLevels[2]="Baixo"
DetailLevels[3]="Normal"
; EN: DetailLevels[4]="High"
DetailLevels[4]="Alto"
; EN: DetailLevels[5]="Higher"
DetailLevels[5]="Superior"
; EN: DetailLevels[6]="Highest"
DetailLevels[6]="Altíssima"
; EN: DetailActorDetail.Caption="World Detail"
DetailActorDetail.Caption="Detalhe Mundial"
; EN: DetailActorDetail.Hint="Changes the level of detail used for optional geometry and effects."
DetailActorDetail.Hint="Altera o nível de detalhe usado para geometria e efeitos opcionais."
DetailBlob.Caption="Use Blob Shadows"
; EN: DetailBlob.Hint="Enable blob shadows.  Recommended for low-performance PCs."
DetailBlob.Hint="Ativar sombras de bolhas. Recomendado para PCs de baixo desempenho."
; EN: DetailCharacterDetail.Caption="Character Detail"
DetailCharacterDetail.Caption="Detalhe do personagem"