[AdminPlayerList]
ColumnHeadings=("Player Name","Unique ID","IP")

[Browser_AddBuddy]
; EN: AddBuddyDesc.Caption="Add Buddy"
AddBuddyDesc.Caption="Voeg vriend toe"
; EN: BuddyEntryBox.Caption="Buddy Name: "
BuddyEntryBox.Caption="Naam vriend: "
; EN: CancelButton.Caption="CANCEL"
CancelButton.Caption="ANNULEER"
; EN: OkButton.Caption="OK"
OkButton.Caption="Oke"

[Browser_BuddyList]
ColumnHeadings=("Buddy Name")

[Browser_IRC]
; EN: SystemLabel="System"
SystemLabel="Systeem"
; EN: LeaveChannelCaption="LEAVE CHANNEL"
LeaveChannelCaption="KANAAL VERLATEN"
; EN: LeavePrivateCaptionHead="CLOSE "
LeavePrivateCaptionHead="DICHTBIJ "
; EN: ChooseNewNickText="Choose A New Chat Nickname"
ChooseNewNickText="Kies een nieuwe chatnaam"
; EN: MyBackButton.Caption="BACK"
MyBackButton.Caption="RUG"
; EN: MyChangeNickButton.Caption="CHANGE NICK"
MyChangeNickButton.Caption="WIJZIG NICK"

[Browser_IconKey]
; EN: DialogText.Caption="Server Icon Key"
DialogText.Caption="Toets serverpictogram"
; EN: OkButton.Caption="OK"
OkButton.Caption="Oke"

[Browser_MOTD]
VersionString="Ver."
; EN: MyBackButton.Caption="BACK"
MyBackButton.Caption="RUG"
; EN: MyRefreshButton.Caption="REFRESH"
MyRefreshButton.Caption="VERFRISSEN"
MyUpgradeButton.Caption="UPGRADE"

[Browser_OpenIP]
; EN: CancelButton.Caption="CANCEL"
CancelButton.Caption="ANNULEER"
; EN: IpEntryBox.Caption="IP Address: "
IpEntryBox.Caption="IP adres: "
; EN: OkButton.Caption="OK"
OkButton.Caption="Oke"
; EN: OpenIPDesc.Caption="Enter New IP Address"
OpenIPDesc.Caption="Voer een nieuw IP-adres in"

[Browser_Page]
; EN: StartQueryString="Querying Master Server"
StartQueryString="Hoofdserver opvragen"
; EN: AuthFailString="Authentication Failed"
AuthFailString="Verificatie mislukt"
; EN: ConnFailString="Connection Failed - Retrying"
ConnFailString="Verbinding mislukt - Opnieuw proberen"
; EN: ConnTimeoutString="Connection Timed Out"
ConnTimeoutString="Connectie time-out"
; EN: QueryCompleteString="Query Complete!"
QueryCompleteString="Vraag voltooid!"
; EN: RefreshCompleteString="Refresh Complete!"
RefreshCompleteString="Verversen voltooid!"
; EN: ReadyString="Ready"
ReadyString="Klaar"

[Browser_PlayersList]
ColumnHeadings=("Player Name","Score","Stats ID","Ping")

[Browser_Prefs]
; EN: ViewStatsStrings[0]="Any Servers"
ViewStatsStrings[0]="Alle servers"
; EN: ViewStatsStrings[1]="Only Stats Servers"
ViewStatsStrings[1]="Alleen statistiekenservers"
; EN: ViewStatsStrings[2]="No Stats Servers"
ViewStatsStrings[2]="Geen statistiekenservers"
; EN: MutatorModeStrings[0]="Any Mutators"
MutatorModeStrings[0]="Alle mutators"
; EN: MutatorModeStrings[1]="No Mutators"
MutatorModeStrings[1]="Geen Mutators"
; EN: MutatorModeStrings[2]="This Mutator"
MutatorModeStrings[2]="deze mutator"
; EN: MutatorModeStrings[3]="Not This Mutator"
MutatorModeStrings[3]="Niet deze mutator"
; EN: WeaponStayStrings[0]="Any Servers"
WeaponStayStrings[0]="Alle servers"
; EN: WeaponStayStrings[1]="Only Weapon Stay Servers"
WeaponStayStrings[1]="Alleen wapenverblijfservers"
; EN: WeaponStayStrings[2]="No Weapon Stay Servers"
WeaponStayStrings[2]="Geen wapenverblijfservers"
; EN: TranslocatorStrings[0]="Any Servers"
TranslocatorStrings[0]="Alle servers"
; EN: TranslocatorStrings[1]="Only Translocator Servers"
TranslocatorStrings[1]="Alleen Translocator-servers"
; EN: TranslocatorStrings[2]="No Translocator Servers"
TranslocatorStrings[2]="Geen Translocator-servers"
; EN: CustomQuery.Caption="Custom Query"
CustomQuery.Caption="Aangepaste zoekopdracht"
; EN: FilterTitle.Caption="Server Filtering Options:"
FilterTitle.Caption="Opties voor serverfiltering:"
MaxGamespeed.Caption="Max"
; EN: MinGamespeed.Caption="Game Speed Min"
MinGamespeed.Caption="Spelsnelheid Min"
MutatorModeCombo.Caption="Mutators"
; EN: MyBackButton.Caption="BACK"
MyBackButton.Caption="RUG"
; EN: MyKeyButton.Caption="ICON KEY"
MyKeyButton.Caption="ICOON TOETS"
; EN: NoBotServersCheckBox.Caption="No Servers With Bots"
NoBotServersCheckBox.Caption="Geen servers met bots"
; EN: NoEmptyCheckBox.Caption="No Empty Servers"
NoEmptyCheckBox.Caption="Geen lege servers"
; EN: NoFullCheckBox.Caption="No Full Servers"
NoFullCheckBox.Caption="Geen volledige servers"
; EN: NoPasswdCheckBox.Caption="No Passworded Servers"
NoPasswdCheckBox.Caption="Geen servers met wachtwoord"
; EN: OnlyStandardCheckBox.Caption="Only Standard Servers"
OnlyStandardCheckBox.Caption="Alleen standaardservers"
; EN: StatsViewCombo.Caption="Stats Servers"
StatsViewCombo.Caption="Stats-servers"
TranslocatorCombo.Caption="Translocator"
; EN: WeaponStayCombo.Caption="WeaponStay"
WeaponStayCombo.Caption="WapenVerblijf"

[Browser_RulesList]
; EN: TrueString="Enabled"
TrueString="Ingeschakeld"
; EN: FalseString="Disabled"
FalseString="Gehandicapt"
; EN: ServerModeString="Server Mode"
ServerModeString="Servermodus"
; EN: DedicatedString="Dedicated"
DedicatedString="Toegewijd"
; EN: NonDedicatedString="Non-Dedicated"
NonDedicatedString="Niet-toegewijd"
; EN: AdminNameString="Server Admin"
AdminNameString="Serverbeheerder"
; EN: AdminEmailString="Admin Email"
AdminEmailString="E-mailadres van de beheerder"
; EN: PasswordString="Requires Password"
PasswordString="Vereist wachtwoord"
; EN: GameStatsString="UT2004 Stats"
GameStatsString="UT2004-statistieken"
; EN: GameSpeedString="Game Speed"
GameSpeedString="Gamesnelheid"
MutatorString="Mutator"
; EN: BalanceTeamsString="Bots Balance Teams"
BalanceTeamsString="Bots Balanceren Teams"
; EN: PlayersBalanceTeamsString="Balance Teams"
PlayersBalanceTeamsString="Balansteams"
; EN: FriendlyFireString="Friendly Fire"
FriendlyFireString="Vriendschappelijk vuur"
; EN: GoalScoreString="Goal Score"
GoalScoreString="Doelscore"
; EN: TimeLimitString="Time Limit"
TimeLimitString="Tijdslimiet"
; EN: MinPlayersString="Minimum Players (bots)"
MinPlayersString="Minimale spelers (bots)"
TranslocatorString="Translocator"
; EN: WeaponStayString="Weapons Stay"
WeaponStayString="Wapens blijven"
ColumnHeadings=("Setting","Value")

[Browser_ServerListPageBase]
; EN: AddFavoriteButton.Caption="ADD FAVORITE"
AddFavoriteButton.Caption="VOEG FAVORIET TOE"
; EN: BackButton.Caption="BACK"
BackButton.Caption="RUG"
; EN: JoinButton.Caption="JOIN"
JoinButton.Caption="MEEDOEN"
; EN: RefreshButton.Caption="REFRESH LIST"
RefreshButton.Caption="VERVERS LIJST"
; EN: SpectateButton.Caption="SPECTATE"
SpectateButton.Caption="SPECTEREN"

[Browser_ServerListPageBuddy]
; EN: AddBuddyCaption="ADD BUDDY"
AddBuddyCaption="VOEG VRIEND TOE"
; EN: RemoveBuddyCaption="REMOVE BUDDY"
RemoveBuddyCaption="VERWIJDER BUDDY"

[Browser_ServerListPageFavorites]
; EN: RemoveFavoriteCaption="REMOVE FAVORITE"
RemoveFavoriteCaption="VERWIJDER FAVORIET"
; EN: AddIPCaption="ADD IP"
AddIPCaption="VOEG IP toe"
; EN: RePingCaption="RE-PING LIST"
RePingCaption="RE-PING LIJST"

[Browser_ServerListPageMS]
; EN: QueryFinHead="Query Complete! Received: "
QueryFinHead="Vraag voltooid! Ontvangen: "
QueryFinTail=" Servers"
; EN: PingRecvString="Pinging Servers"
PingRecvString="Servers pingen"
; EN: MustUpgradeString="Upgrade available. Please refresh the News page."
MustUpgradeString="Upgrade beschikbaar. Vernieuw de Nieuws-pagina."
; EN: RefreshFinHead="Pinging Complete! "
RefreshFinHead="Pingen voltooid! "
RefreshFinMid=" Servers, "
; EN: RefreshFinTail=" Players"
RefreshFinTail=" spelers"
; EN: RePingServersCaption="RE-PING LIST"
RePingServersCaption="RE-PING LIJST"
; EN: RefreshCaption="REFRESH LIST"
RefreshCaption="VERVERS LIJST"

[Browser_ServerListPageMSCustom]
; EN: MyGameTypeLabel.Caption="Game Type"
MyGameTypeLabel.Caption="Speltype"

[Browser_ServersList]
IconDescriptions=("Passworded","Stats Enabled","Latest Version","Listen Server","Instagib","Standard Server","UT Classic")
ColumnHeadings=(,"Server Name","Map","Players","Ping")

[DefaultCrosshairs]
; EN: Crosshair=((FriendlyName="Cross (1)"),(FriendlyName="Cross (2)"),(FriendlyName="Cross (3)"),(FriendlyName="Cross (4)"),(FriendlyName="Cross (5)"),(FriendlyName="Dot"),(FriendlyName="Pointer"),(FriendlyName="Triad (1)"),(FriendlyName="Triad (2)"),(FriendlyName="Triad (3)"),(FriendlyName="Bracket (1)"),(FriendlyName="Bracket (2)"),(FriendlyName="Circle (1)"),(FriendlyName="Circle (2)"))
Crosshair=((FriendlyName="Kruis (1)"),(FriendlyName="Kruis (2)"),(FriendlyName="Kruis (3)"),(FriendlyName="Kruis (4)"),(FriendlyName="Kruis (5)"),(FriendlyName="Punt"),(FriendlyName="Wijzer"),(FriendlyName="drietal (1)"),(FriendlyName="drietal (2)"),(FriendlyName="drietal (3)"),(FriendlyName="Beugel (1)"),(FriendlyName="Beugel (2)"),(FriendlyName="Cirkel (1)"),(FriendlyName="Cirkel (2)"))

[ExtendedConsole]
; EN: AddedCurrentHead="Added Server:"
AddedCurrentHead="Toegevoegde server:"
; EN: AddedCurrentTail="To Favorites!"
AddedCurrentTail="Naar favorieten!"
; EN: ServerFullMsg="Server is now full"
ServerFullMsg="Server is nu vol"
; EN: SMStateName[0]="Speech Menu"
SMStateName[0]="Spraakmenu"
; EN: SMStateName[1]="Voice Chat"
SMStateName[1]="Voicechat"
; EN: SMStateName[2]="Acknowledge"
SMStateName[2]="Erkennen"
; EN: SMStateName[3]="Friendly Fire"
SMStateName[3]="Vriendschappelijk vuur"
; EN: SMStateName[4]="Order"
SMStateName[4]="Volgorde"
; EN: SMStateName[5]="Other"
SMStateName[5]="Ander"
; EN: SMStateName[6]="Taunt"
SMStateName[6]="Uitdagen"
; EN: SMStateName[7]="Taunt Anim"
SMStateName[7]="Bespot Anim"
; EN: SMStateName[8]="Player Select"
SMStateName[8]="Speler selecteren"
; EN: SMChannelOptions[0]="Join"
SMChannelOptions[0]="Meedoen"
; EN: SMChannelOptions[1]="Leave"
SMChannelOptions[1]="Vertrekken"
; EN: SMChannelOptions[2]="Talk"
SMChannelOptions[2]="Praten"
; EN: SMAllString="[ALL]"
SMAllString="[ALLE]"
; EN: SMMoreString="[MORE]"
SMMoreString="[MEER]"

[GUIController]
; EN: DesignModeHints=((Key=" Key",Description="                                Description"),(Key=" (F1)",Description="                                View this help screen"),(Key=" Ctrl + Alt + D",Description="                      Toggles design mode"),(Key=" Ctrl + Alt + E",Description="                      Toggles property editor mode"),(Key=" [Ctrl +] H",Description="                          Toggles active/focused info"),(Key=" [Ctrl +] I",Description="                          Toggle interactive mode"),(Key=" [Ctrl +] P",Description="                          Toggles full MenuOwner chains for active/focused"),(Key=" [Ctrl +] C",Description="                          Copy MoveControl position to clipboard"),(Key=" [Ctrl +] X",Description="                          Export MoveControl to clipboard"),(Key=" [Ctrl +] U",Description="                          Refresh the property window in the designer"),(Key=" [Ctrl +] Up/Down/Left/Right",Description="         Reposition MoveControl using arrow keys"),(Key=" [Ctrl +] +/-",Description="                        Resize MoveControl vertically"),(Key=" [Ctrl +] Num+/Num-",Description="                  Resize selected component horizontally"),(Key=" [Ctrl +] WheelUp",Description="                    Set MoveControl to MoveControl's menuowner"),(Key=" [Ctrl +] WheenDown",Description="                  Set MoveControl to MoveControl's focused control"),(Key=" [(Ctrl + Alt) +] MouseX/Y+LMouse",Description="    Reposition MoveControl using mouse"),(Key=" (Shift)",Description="                             Hides all design mode indicators"),(Key=" (Ctrl + Alt)",Description="                        View focus chain"),(Key=" [Ctrl +] Tab",Description="                        Select new MoveControl"),(Key=" [Ctrl +] LMouse",Description="                     Select new MoveControl"))
DesignModeHints=((Key=" Toets",Description="                                Beschrijving"),(Key=" (F1)",Description="                                Bekijk dit helpscherm"),(Key=" Ctrl + Alt + D",Description="                      Schakelt ontwerpmodus in"),(Key=" Ctrl + Alt + E",Description="                      Schakelt de eigenschappenbewerkermodus in"),(Key=" [Ctrl +] H",Description="                          Schakelt tussen actieve/gefocuste info"),(Key=" [Ctrl +] I",Description="                          Schakel interactieve modus in"),(Key=" [Ctrl +] P",Description="                          Schakelt volledige MenuOwner-ketens in voor actief/gericht"),(Key=" [Ctrl +] C",Description="                          Kopieer MoveControl-positie naar klembord"),(Key=" [Ctrl +] X",Description="                          Exporteer MoveControl naar klembord"),(Key=" [Ctrl +] U",Description="                          Vernieuw het eigenschappenvenster in de ontwerper"),(Key=" [Ctrl +] Omhoog/Omlaag/Links/Rechts",Description="         Verplaats MoveControl met behulp van de pijltjestoetsen"),(Key=" [Ctrl+] +/-",Description="                        Formaat van MoveControl verticaal wijzigen"),(Key=" [Ctrl +] Num+/Num-",Description="                  Formaat van geselecteerde component horizontaal wijzigen"),(Key=" [Ctrl +] WheelUp",Description="                    Zet MoveControl op MoveControl's menu-eigenaar"),(Key=" [Ctrl +] WheenDown",Description="                  Zet MoveControl op MoveControl's gerichte besturing"),(Key=" [(Ctrl + Alt) +] MuisX/Y+LMouse",Description="    Verplaats MoveControl met muis"),(Key=" (Verschuiving)",Description="                             Verbergt alle ontwerpmodusindicatoren"),(Key=" (Ctrl+Alt)",Description="                        Focusketen bekijken"),(Key=" [Ctrl +]-tab",Description="                        Selecteer nieuwe MoveControl"),(Key=" [Ctrl +] Lmuis",Description="                     Selecteer nieuwe MoveControl"))

[GUIQuestionPage]
ButtonNames=("Ok","Cancel","Retry","Continue","Yes","No","Abort","Ignore")

[HudBTeamDeathMatch]
; EN: LinkEstablishedMessage="LINK ESTABLISHED"
LinkEstablishedMessage="LINK VASTGESTELD"

[HudBase]
InstructionFontName="UT2003Fonts.jFontMono800x600"
; EN: LevelActionLoading="LOADING..."
LevelActionLoading="BEZIG MET LADEN..."
; EN: LevelActionPaused="PAUSED"
LevelActionPaused="GEPAUZEERD"
LevelActionFontName="UT2003Fonts.FontMedium"
; EN: WonMatchPostFix=" won the match!"
WonMatchPostFix=" wedstrijd gewonnen!"
; EN: WaitingToSpawn="Press [Fire] to join the match!"
WaitingToSpawn="Druk op [Fire] om mee te doen aan de wedstrijd!"
; EN: AtMenus="Press [ESC] to close menu"
AtMenus="Druk op [ESC] om het menu te sluiten"
; EN: YouveWonTheMatch="You've won the match!"
YouveWonTheMatch="Je hebt de wedstrijd gewonnen!"
; EN: YouveLostTheMatch="You've lost the match."
YouveLostTheMatch="Je hebt de wedstrijd verloren."
; EN: NowViewing="Now viewing"
NowViewing="Nu aan het bekijken"
; EN: ScoreText="Score"
ScoreText="Scoren"
; EN: InitialViewingString="Press Fire to View a different Player"
InitialViewingString="Druk op Fire om een ​​andere speler te bekijken"
ProgressFontName="UT2003Fonts.FontMedium"
FontArrayNames[0]="UT2003Fonts.FontEurostile37"
FontArrayNames[1]="UT2003Fonts.FontEurostile29"
FontArrayNames[2]="UT2003Fonts.FontEurostile24"
FontArrayNames[3]="UT2003Fonts.FontEurostile21"
FontArrayNames[4]="UT2003Fonts.FontEurostile17"
FontArrayNames[5]="UT2003Fonts.FontEurostile14"
FontArrayNames[6]="UT2003Fonts.FontEurostile12"
FontArrayNames[7]="UT2003Fonts.FontEurostile9"
FontArrayNames[8]="UT2003Fonts.FontSmallText"

[HudCTeamDeathMatch]
; EN: LinkEstablishedMessage="LINK ESTABLISHED"
LinkEstablishedMessage="LINK VASTGESTELD"

[IRCLink]
; EN: InvalidAddressText="Invalid server address, aborting."
InvalidAddressText="Ongeldig serveradres, afbreken."
; EN: ErrorBindingText="Error binding local port, aborting."
ErrorBindingText="Fout bij het binden van lokale poort, afbreken."
; EN: ResolveFailedText="Failed to resolve server address, aborting."
ResolveFailedText="Kan serveradres niet omzetten, afbreken."
; EN: ConnectedText="Connected."
ConnectedText="Verbonden."
; EN: ConnectingToText="Connecting to"
ConnectingToText="Verbinden met"
; EN: TimeOutError="Timeout connecting to server."
TimeOutError="Time-out bij verbinding met server."
; EN: InviteString="invites you to join"
InviteString="nodigt je uit om mee te doen"
; EN: NickInUseText="Nickname Already In Use"
NickInUseText="Bijnaam al in gebruik"
; EN: NickInvalidText="Nickname Is Invalid"
NickInvalidText="Bijnaam is ongeldig"

[IRC_NewNick]
; EN: NewNickEntry.Caption="New Nickname: "
NewNickEntry.Caption="Nieuwe bijnaam: "
; EN: OkButton.Caption="OK"
OkButton.Caption="Oke"

[IRC_Page]
; EN: HasLeftText="has left"
HasLeftText="is vertrokken"
; EN: HasJoinedText="has joined"
HasJoinedText="is erbij gekomen"
; EN: WasKickedByText="was kicked by"
WasKickedByText="werd geschopt door"
; EN: NowKnownAsText="is now known as"
NowKnownAsText="staat nu bekend als"
; EN: QuitText="Quit"
QuitText="Ontslag nemen"
; EN: SetsModeText="sets mode"
SetsModeText="stelt modus in"
; EN: NewTopicText="Topic"
NewTopicText="Onderwerp"

[IRC_System]
; EN: NotInAChannelText="Not in a channel!"
NotInAChannelText="Niet in een kanaal!"
; EN: KickedFromText="You were kicked from"
KickedFromText="Je bent eruit gegooid"
; EN: ByText="by"
ByText="door"
; EN: IsAwayText="is away"
IsAwayText="is weg"
; EN: ConnectText="CONNECT"
ConnectText="AANSLUITEN"
; EN: DisconnectText="DISCONNECT"
DisconnectText="LOSKOPPELEN"
; EN: MyChannelLabel.Caption="Channel"
MyChannelLabel.Caption="Kanaal"
; EN: MyJoinChannelButton.Caption="JOIN CHANNEL"
MyJoinChannelButton.Caption="WORD LID VAN KANAAL"
; EN: MyRemoveChannelButton.Caption="REMOVE CHANNEL"
MyRemoveChannelButton.Caption="KANAAL VERWIJDEREN"
; EN: MyRemoveServerButton.Caption="REMOVE SERVER"
MyRemoveServerButton.Caption="VERWIJDER SERVER"
MyServerLabel.Caption="Server"

[JoeTest]
; EN: TestButton1.Caption="Close Window"
TestButton1.Caption="Venster sluiten"
; EN: TitleText.Caption="Joe's Amazing Test GUI"
TitleText.Caption="Joe's geweldige test-GUI"

[JoeTestPanelA]
; EN: TestButtonA.Caption="Wow"
TestButtonA.Caption="Wauw"
; EN: TestButtonB.Caption="Damn"
TestButtonB.Caption="Verdomd"

[ScoreBoardDeathMatch]
; EN: RankText="RANK"
RankText="RANG"
; EN: PlayerText="PLAYER"
PlayerText="SPELER"
PointsText="SCORE"
; EN: TimeText="TIME:"
TimeText="TIJD:"
PingText="PING:"
PLText="P/L:"
; EN: DeathsText="DEATHS"
DeathsText="STERFGEVALLEN"
; EN: AdminText="ADMIN"
AdminText="BEHEERDER"
; EN: NetText="NET"
NetText="NETTO"
; EN: FooterText="Elapsed Time:"
FooterText="Verstreken tijd:"
; EN: MatchIDText="UT2004 Stats Match ID"
MatchIDText="UT2004 Statistieken Match ID"
; EN: OutText="OUT"
OutText="UIT"
; EN: OutFireText="   You are OUT. Fire to view other players."
OutFireText="   Je bent af. Vuur om andere spelers te bekijken."
; EN: ReadyText="READY"
ReadyText="KLAAR"
; EN: NotReadyText="NOT RDY"
NotReadyText="NIET RDY"
; EN: SkillLevel[0]="NOVICE"
SkillLevel[0]="GEVORDERDE"
; EN: SkillLevel[1]="AVERAGE"
SkillLevel[1]="GEMIDDELD"
; EN: SkillLevel[2]="EXPERIENCED"
SkillLevel[2]="ERVAREN"
; EN: SkillLevel[3]="SKILLED"
SkillLevel[3]="GESCHOOLDE"
; EN: SkillLevel[4]="ADEPT"
SkillLevel[4]="BEDREVEN"
; EN: SkillLevel[5]="MASTERFUL"
SkillLevel[5]="MEESTERLIJK"
; EN: SkillLevel[6]="INHUMAN"
SkillLevel[6]="ONMENSELIJK"
; EN: SkillLevel[7]="GODLIKE"
SkillLevel[7]="GODDELIJK"
; EN: MaxLives="MAX LIVES:"
MaxLives="MAX. LEVENS:"
; EN: FragLimit="FRAG LIMIT:"
FragLimit="FRAG LIMIET:"
FPH="PPH"
; EN: GameType="GAME"
GameType="SPEL"
MapName=" in "
; EN: Restart="   You were killed. Press Fire to respawn!"
Restart="   Je bent vermoord. Druk op Vuur om te respawnen!"
; EN: Continue=" Press [Fire] to continue!"
Continue=" Druk op [Vuur] om door te gaan!"
; EN: Ended="The match has ended."
Ended="De wedstrijd is afgelopen."
; EN: TimeLimit="REMAINING TIME:"
TimeLimit="OVERGEBLEVEN TIJD:"
Spacer=" "

[ScoreBoardTeamDeathMatch]
; EN: FragLimit="SCORE LIMIT:"
FragLimit="SCORE LIMIET:"

[ServerBrowser]
MutantTypeName="Mutant"
; EN: InvasionTypeName="Invasion"
InvasionTypeName="Invasie"
LMSTypeName="Last Man Standing"
MutantType="xMutantGame"
; EN: InvasionType="Invasion"
InvasionType="Invasie"
; EN: LMSType="xLastManStanding"
LMSType="xLaatsteManStaande"
; EN: MyBRServerListPage.PageCaption="Bombing Run"
MyBRServerListPage.PageCaption="Bombardement"
; EN: MyBuddiesPage.PageCaption="Buddies"
MyBuddiesPage.PageCaption="Vrienden"
; EN: MyCTFServerListPage.PageCaption="CTF"
MyCTFServerListPage.PageCaption="VdV"
; EN: MyCustomServerListPage.PageCaption="Custom"
MyCustomServerListPage.PageCaption="Aangepast"
MyDMServerListPage.PageCaption="DM"
; EN: MyDomServerListPage.PageCaption="Double Dom"
MyDomServerListPage.PageCaption="Dubbele Dom"
; EN: MyFavoritesPage.PageCaption="Favorites"
MyFavoritesPage.PageCaption="Favorieten"
; EN: MyIRCPage.PageCaption="Chat"
MyIRCPage.PageCaption="Chatten"
MyLANPage.PageCaption="LAN"
; EN: MyMOTDPage.PageCaption="News"
MyMOTDPage.PageCaption="Nieuws"
MyPrefsPage.PageCaption="Filter"
MyTDMServerListPage.PageCaption="Team DM"
; EN: ServerBrowserHeader.Caption="Server Browser"
ServerBrowserHeader.Caption="Server browser"

[Tab_AdminPlayerList]
AdminPlayerBan.Caption="Ban"
; EN: AdminPlayerBan.Hint="Ban this player"
AdminPlayerBan.Hint="Deze speler verbieden"
; EN: AdminPlayerKick.Caption="Kick"
AdminPlayerKick.Caption="Trap"
; EN: AdminPlayerKick.Hint="Kick this Player"
AdminPlayerKick.Hint="Schop deze speler"

[Tab_AudioSettings]
; EN: AudioModes[0]="Software 3D Audio"
AudioModes[0]="Software 3D-audio"
; EN: AudioModes[1]="Hardware 3D Audio"
AudioModes[1]="Hardware 3D-audio"
; EN: AudioModes[2]="Hardware 3D Audio + EAX"
AudioModes[2]="Hardware 3D-audio + EAX"
; EN: AudioModes[3]="Safe Mode"
AudioModes[3]="Veilige modus"
; EN: VoiceModes[0]="All"
VoiceModes[0]="Alle"
; EN: VoiceModes[1]="No auto-taunts"
VoiceModes[1]="Geen automatische beschimpingen"
; EN: VoiceModes[2]="No taunts"
VoiceModes[2]="Geen beschimpingen"
; EN: VoiceModes[3]="None"
VoiceModes[3]="Geen"
; EN: AnnounceModes[0]="None"
AnnounceModes[0]="Geen"
; EN: AnnounceModes[1]="Minimal"
AnnounceModes[1]="Minimaal"
; EN: AnnounceModes[2]="All"
AnnounceModes[2]="Alle"
; EN: AudioAnnounce.Caption="Announcements"
AudioAnnounce.Caption="Aankondigingen"
; EN: AudioAnnounce.Hint="Adjusts the amount of in-game announcements."
AudioAnnounce.Hint="Past het aantal in-game aankondigingen aan."
; EN: AudioAnnouncerPack.Caption="Announcer Voice"
AudioAnnouncerPack.Caption="Omroeper Stem"
; EN: AudioAnnouncerPack.Hint="Select the Announcer for tonight's game."
AudioAnnouncerPack.Hint="Selecteer de Omroeper voor de wedstrijd van vanavond."
; EN: AudioAutoTaunt.Caption="Auto-Taunt"
AudioAutoTaunt.Caption="Auto-taunt"
; EN: AudioAutoTaunt.Hint="Enables your in-game player to automatically taunt opponents."
AudioAutoTaunt.Hint="Stelt je in-game speler in staat om automatisch tegenstanders te beschimpen."
; EN: AudioEffectsVolumeLabel.Caption="Effects Volume"
AudioEffectsVolumeLabel.Caption="Effecten Volume"
; EN: AudioEffectsVolumeSlider.Hint="Changes the volume of all in game sound effects."
AudioEffectsVolumeSlider.Hint="Verandert het volume van alle geluidseffecten in het spel."
; EN: AudioLowDetail.Caption="Low Sound Detail"
AudioLowDetail.Caption="Laag geluidsdetail"
; EN: AudioLowDetail.Hint="Lowers quality of sound."
AudioLowDetail.Hint="Verlaagt de geluidskwaliteit."
; EN: AudioMatureTaunts.Caption="Mature Taunts"
AudioMatureTaunts.Caption="volwassen beschimpingen"
; EN: AudioMatureTaunts.Hint="Enables off-color commentary."
AudioMatureTaunts.Hint="Schakelt ongekleurd commentaar in."
; EN: AudioMessageBeep.Caption="Message Beep"
AudioMessageBeep.Caption="Bericht Piep"
; EN: AudioMessageBeep.Hint="Enables a beep when receiving a text message from other players."
AudioMessageBeep.Hint="Schakelt een pieptoon in bij het ontvangen van een sms-bericht van andere spelers."
; EN: AudioMode.Caption="Audio Mode"
AudioMode.Caption="Audiomodus"
; EN: AudioMode.Hint="Changes the audio system mode."
AudioMode.Hint="Wijzigt de audiosysteemmodus."
; EN: AudioMusicVolumeLabel.Caption="Music Volume"
AudioMusicVolumeLabel.Caption="Muziekvolume"
; EN: AudioMusicVolumeSlider.Hint="Changes the volume of the background music."
AudioMusicVolumeSlider.Hint="Wijzigt het volume van de achtergrondmuziek."
; EN: AudioPlayVoices.Caption="Play Voices"
AudioPlayVoices.Caption="Stemmen afspelen"
; EN: AudioPlayVoices.Hint="Defines the types of voice messages to play."
AudioPlayVoices.Hint="Definieert de soorten spraakberichten die moeten worden afgespeeld."
; EN: AudioReverseStereo.Caption="Reverse Stereo"
AudioReverseStereo.Caption="Omgekeerde stereo"
; EN: AudioReverseStereo.Hint="Reverses the left and right audio channels."
AudioReverseStereo.Hint="Keert de linker en rechter audiokanalen om."
; EN: AudioVoiceVolumeLabel.Caption="Announcer Volume"
AudioVoiceVolumeLabel.Caption="Omroepervolume"
; EN: AudioVoiceVolumeSlider.Hint="Changes the volume of all in game voice messages."
AudioVoiceVolumeSlider.Hint="Wijzigt het volume van alle spraakberichten in het spel."

[Tab_ControlSettings]
; EN: Bindings=((KeyLabel="Movement"),(KeyLabel="Forward"),(KeyLabel="Backward"),(KeyLabel="Strafe Left"),(KeyLabel="Strafe Right"),(KeyLabel="Jump"),(KeyLabel="Walk"),(KeyLabel="Crouch"),(KeyLabel="Strafe Toggle"),(KeyLabel="Looking"),(KeyLabel="Turn Left"),(KeyLabel="Turn Right"),(KeyLabel="Look Up"),(KeyLabel="Look Down"),(KeyLabel="Center View"),(KeyLabel="Weapons"),(KeyLabel="Fire"),(KeyLabel="Alt-Fire"),(KeyLabel="Throw Weapon"),(KeyLabel="Best Weapon"),(KeyLabel="Next Weapon"),(KeyLabel="Prev Weapon"),(KeyLabel="Last Weapon"),(KeyLabel="Weapon Selection"),(KeyLabel="Super Weapon"),(KeyLabel="Shield Gun"),(KeyLabel="Assault Rifle"),(KeyLabel="Bio-Rifle"),(KeyLabel="Shock Rifle"),(KeyLabel="Link Gun"),(KeyLabel="Minigun"),(KeyLabel="Flak Cannon"),(KeyLabel="Rocket Launcher"),(KeyLabel="Lightning Rifle"),(KeyLabel="Translocator"),(KeyLabel="Communication"),(KeyLabel="Say"),(KeyLabel="Team Say"),(KeyLabel="Speech Menu"),(KeyLabel="Taunts"),(KeyLabel="Pelvic Thrust"),(KeyLabel="Ass Smack"),(KeyLabel="Throat Cut"),(KeyLabel="Hud"),(KeyLabel="Grow Hud"),(KeyLabel="Shrink Hud"),(KeyLabel="Miscellaneous"),(KeyLabel="Pause"),(KeyLabel="Screenshot"),(KeyLabel="Menu"),(KeyLabel="ScoreBoard"),(KeyLabel="ScoreBoard Toggle"),(KeyLabel="In Game Chat"),(KeyLabel="Server Info"))
Bindings=((KeyLabel="Beweging"),(KeyLabel="Naar voren"),(KeyLabel="achteruit"),(KeyLabel="Strafe Links"),(KeyLabel="Strafe Rechts"),(KeyLabel="Springen"),(KeyLabel="Wandelen"),(KeyLabel="hurken"),(KeyLabel="Strafe Toggle"),(KeyLabel="Op zoek"),(KeyLabel="Sla linksaf"),(KeyLabel="Sla rechtsaf"),(KeyLabel="Opzoeken"),(KeyLabel="Kijk naar beneden"),(KeyLabel="Centrumweergave"),(KeyLabel="wapens"),(KeyLabel="Vuur"),(KeyLabel="Alt-Fire"),(KeyLabel="wapen gooien"),(KeyLabel="Beste wapen"),(KeyLabel="Volgende wapen"),(KeyLabel="Vorig wapen"),(KeyLabel="Laatste wapen"),(KeyLabel="Wapenselectie"),(KeyLabel="Super wapen"),(KeyLabel="schild pistool"),(KeyLabel="Aanvalsgeweer"),(KeyLabel="Bio-geweer"),(KeyLabel="Schokgeweer"),(KeyLabel="Link Gun"),(KeyLabel="Minigun"),(KeyLabel="Flak kanon"),(KeyLabel="Raketwerper"),(KeyLabel="Bliksemgeweer"),(KeyLabel="Translocator"),(KeyLabel="Communicatie"),(KeyLabel="Zeggen"),(KeyLabel="Team Say"),(KeyLabel="Spraakmenu"),(KeyLabel="beschimpingen"),(KeyLabel="bekken stuwkracht"),(KeyLabel="kont smack"),(KeyLabel="keel knippen"),(KeyLabel="Hoed"),(KeyLabel="Groei Hud"),(KeyLabel="Hoed verkleinen"),(KeyLabel="Diversen"),(KeyLabel="Pauze"),(KeyLabel="Schermafbeelding"),(KeyLabel="Menu"),(KeyLabel="Scorebord"),(KeyLabel="Scorebord wisselen"),(KeyLabel="In gamechat"),(KeyLabel="Serverinfo"))
Labels=("Movement","Forward","Backward","Strafe Left","Strafe Right","Jump","Walk","Crouch","Strafe Toggle","Looking","Turn Left","Turn Right","Look Up","Look Down","Center View","Weapons","Fire","Alt-Fire","Throw Weapon","Best Weapon","Next Weapon","Prev Weapon","Last Weapon","Weapon Selection","Super Weapon","Shield Gun","Assault Rifle","Bio-Rifle","Shock Rifle","Link Gun","Minigun","Flak Cannon","Rocket Launcher","Lightning Rifle","Translocator","Communication","Say","Team Say","Speech Menu","Taunts","Pelvic Thrust","Ass Smack","Throat Cut","Hud","Grow Hud","Shrink Hud","Miscellaneous","Pause","Screenshot","Menu","ScoreBoard","ScoreBoard Toggle","In Game Chat","Server Info")
Header="["
; EN: Footer="] Perform this action "
Footer="] Voer deze actie uit "
; EN: KeyConfigAliasLabel.Caption="Action"
KeyConfigAliasLabel.Caption="Actie"
; EN: KeyConfigAliasLabel2.Caption="Key 1"
KeyConfigAliasLabel2.Caption="Sleutel 1"
; EN: KeyConfigAliasLabel3.Caption="Key 2"
KeyConfigAliasLabel3.Caption="Sleutel 2"
; EN: KeyConfigKeyList.Hint="Select Control to config"
KeyConfigKeyList.Hint="Selecteer Besturing om te configureren"
KeyResetButton.Caption="RESET"
; EN: KeyResetButton.Hint="Reset keys to default values"
KeyResetButton.Hint="Toetsen resetten naar standaardwaarden"

[Tab_DetailSettings]
; EN: DetailLevels[0]="Lowest"
DetailLevels[0]="laagste"
; EN: DetailLevels[1]="Lower"
DetailLevels[1]="Lager"
; EN: DetailLevels[2]="Low"
DetailLevels[2]="Laag"
; EN: DetailLevels[3]="Normal"
DetailLevels[3]="normaal"
; EN: DetailLevels[4]="High"
DetailLevels[4]="Hoog"
; EN: DetailLevels[5]="Higher"
DetailLevels[5]="Hoger"
; EN: DetailLevels[6]="Highest"
DetailLevels[6]="hoogste"
; EN: DetailActorDetail.Caption="World Detail"
DetailActorDetail.Caption="Werelddetail"
; EN: DetailActorDetail.Hint="Changes the level of detail used for optional geometry and effects."
DetailActorDetail.Hint="Wijzigt het detailniveau dat wordt gebruikt voor optionele geometrie en effecten."
; EN: DetailBlob.Caption="Use Blob Shadows"
DetailBlob.Caption="Blob Shadows gebruiken"
; EN: DetailBlob.Hint="Enable blob shadows.  Recommended for low-performance PCs."
DetailBlob.Hint="Blob-schaduwen inschakelen. Aanbevolen voor pc's met lage prestaties."
; EN: DetailCharacterDetail.Caption="Character Detail"
DetailCharacterDetail.Caption="Karakterdetail"
; EN: DetailCharacterDetail.Hint="Changes how much character detail will be rendered."
DetailCharacterDetail.Hint="Wijzigt hoeveel karakterdetails worden weergegeven."