[AdminPlayerList]
ColumnHeadings=("Player Name","Unique ID","IP")

[Browser_AddBuddy]
; EN: AddBuddyDesc.Caption="Add Buddy"
AddBuddyDesc.Caption="バディを追加"
; EN: BuddyEntryBox.Caption="Buddy Name: "
BuddyEntryBox.Caption="バディ名： "
; EN: CancelButton.Caption="CANCEL"
CancelButton.Caption="キャンセル"
; EN: OkButton.Caption="OK"
OkButton.Caption="わかった"

[Browser_BuddyList]
ColumnHeadings=("Buddy Name")

[Browser_IRC]
; EN: SystemLabel="System"
SystemLabel="システム"
; EN: LeaveChannelCaption="LEAVE CHANNEL"
LeaveChannelCaption="チャンネルを離れる"
; EN: LeavePrivateCaptionHead="CLOSE "
LeavePrivateCaptionHead="選ぶ "
; EN: ChooseNewNickText="Choose A New Chat Nickname"
ChooseNewNickText="新しいチャットのニックネームを選択してください"
; EN: MyBackButton.Caption="BACK"
MyBackButton.Caption="戻る"
; EN: MyChangeNickButton.Caption="CHANGE NICK"
MyChangeNickButton.Caption="NICKを変更する"

[Browser_IconKey]
; EN: DialogText.Caption="Server Icon Key"
DialogText.Caption="サーバーアイコンキー"
; EN: OkButton.Caption="OK"
OkButton.Caption="わかった"

[Browser_MOTD]
; EN: VersionString="Ver."
VersionString="Ver。"
; EN: MyBackButton.Caption="BACK"
MyBackButton.Caption="戻る"
; EN: MyRefreshButton.Caption="REFRESH"
MyRefreshButton.Caption="リフレッシュ"
; EN: MyUpgradeButton.Caption="UPGRADE"
MyUpgradeButton.Caption="アップグレード"

[Browser_OpenIP]
; EN: CancelButton.Caption="CANCEL"
CancelButton.Caption="キャンセル"
; EN: IpEntryBox.Caption="IP Address: "
IpEntryBox.Caption="IPアドレス： "
; EN: OkButton.Caption="OK"
OkButton.Caption="わかった"
; EN: OpenIPDesc.Caption="Enter New IP Address"
OpenIPDesc.Caption="新しいIPアドレスを入力してください"

[Browser_Page]
; EN: StartQueryString="Querying Master Server"
StartQueryString="マスターサーバーのクエリ"
; EN: AuthFailString="Authentication Failed"
AuthFailString="認証に失敗しました"
; EN: ConnFailString="Connection Failed - Retrying"
ConnFailString="接続に失敗しました-再試行します"
; EN: ConnTimeoutString="Connection Timed Out"
ConnTimeoutString="接続がタイムアウトしました"
; EN: QueryCompleteString="Query Complete!"
QueryCompleteString="クエリ完了！"
; EN: RefreshCompleteString="Refresh Complete!"
RefreshCompleteString="更新完了！"
; EN: ReadyString="Ready"
ReadyString="準備"

[Browser_PlayersList]
ColumnHeadings=("Player Name","Score","Stats ID","Ping")

[Browser_Prefs]
; EN: ViewStatsStrings[0]="Any Servers"
ViewStatsStrings[0]="任意のサーバー"
; EN: ViewStatsStrings[1]="Only Stats Servers"
ViewStatsStrings[1]="統計サーバーのみ"
; EN: ViewStatsStrings[2]="No Stats Servers"
ViewStatsStrings[2]="統計サーバーなし"
; EN: MutatorModeStrings[0]="Any Mutators"
MutatorModeStrings[0]="ミューテーター"
; EN: MutatorModeStrings[1]="No Mutators"
MutatorModeStrings[1]="ミューテーターなし"
; EN: MutatorModeStrings[2]="This Mutator"
MutatorModeStrings[2]="このミューテーター"
; EN: MutatorModeStrings[3]="Not This Mutator"
MutatorModeStrings[3]="このミューテーターではない"
; EN: WeaponStayStrings[0]="Any Servers"
WeaponStayStrings[0]="任意のサーバー"
; EN: WeaponStayStrings[1]="Only Weapon Stay Servers"
WeaponStayStrings[1]="武器滞在サーバーのみ"
; EN: WeaponStayStrings[2]="No Weapon Stay Servers"
WeaponStayStrings[2]="武器滞在サーバーなし"
; EN: TranslocatorStrings[0]="Any Servers"
TranslocatorStrings[0]="任意のサーバー"
; EN: TranslocatorStrings[1]="Only Translocator Servers"
TranslocatorStrings[1]="Translocatorサーバーのみ"
; EN: TranslocatorStrings[2]="No Translocator Servers"
TranslocatorStrings[2]="Translocatorサーバーはありません"
; EN: CustomQuery.Caption="Custom Query"
CustomQuery.Caption="カスタムクエリ"
; EN: FilterTitle.Caption="Server Filtering Options:"
FilterTitle.Caption="サーバーフィルタリングオプション："
; EN: MaxGamespeed.Caption="Max"
MaxGamespeed.Caption="マックス"
; EN: MinGamespeed.Caption="Game Speed Min"
MinGamespeed.Caption="ゲーム速度最小"
; EN: MutatorModeCombo.Caption="Mutators"
MutatorModeCombo.Caption="ミューテーター"
; EN: MyBackButton.Caption="BACK"
MyBackButton.Caption="戻る"
; EN: MyKeyButton.Caption="ICON KEY"
MyKeyButton.Caption="アイコンキー"
; EN: NoBotServersCheckBox.Caption="No Servers With Bots"
NoBotServersCheckBox.Caption="ボットを備えたサーバーはありません"
; EN: NoEmptyCheckBox.Caption="No Empty Servers"
NoEmptyCheckBox.Caption="空のサーバーはありません"
; EN: NoFullCheckBox.Caption="No Full Servers"
NoFullCheckBox.Caption="フルサーバーなし"
; EN: NoPasswdCheckBox.Caption="No Passworded Servers"
NoPasswdCheckBox.Caption="パスワード付きサーバーなし"
; EN: OnlyStandardCheckBox.Caption="Only Standard Servers"
OnlyStandardCheckBox.Caption="標準サーバーのみ"
; EN: StatsViewCombo.Caption="Stats Servers"
StatsViewCombo.Caption="統計サーバー"
; EN: TranslocatorCombo.Caption="Translocator"
TranslocatorCombo.Caption="トランスロケーター"
WeaponStayCombo.Caption="WeaponStay"

[Browser_RulesList]
; EN: TrueString="Enabled"
TrueString="有効"
; EN: FalseString="Disabled"
FalseString="無効"
; EN: ServerModeString="Server Mode"
ServerModeString="サーバーモード"
; EN: DedicatedString="Dedicated"
DedicatedString="ひたむきな"
; EN: NonDedicatedString="Non-Dedicated"
NonDedicatedString="非専用"
; EN: AdminNameString="Server Admin"
AdminNameString="サーバー管理者"
; EN: AdminEmailString="Admin Email"
AdminEmailString="管理者の電子メール"
; EN: PasswordString="Requires Password"
PasswordString="パスワードが必要"
; EN: GameStatsString="UT2004 Stats"
GameStatsString="UT2004統計"
; EN: GameSpeedString="Game Speed"
GameSpeedString="ゲームスピード"
; EN: MutatorString="Mutator"
MutatorString="ミューテーター"
; EN: BalanceTeamsString="Bots Balance Teams"
BalanceTeamsString="ボットバランスチーム"
; EN: PlayersBalanceTeamsString="Balance Teams"
PlayersBalanceTeamsString="バランスチーム"
; EN: FriendlyFireString="Friendly Fire"
FriendlyFireString="フレンドリー・ファイア"
; EN: GoalScoreString="Goal Score"
GoalScoreString="ゴールスコア"
; EN: TimeLimitString="Time Limit"
TimeLimitString="制限時間"
; EN: MinPlayersString="Minimum Players (bots)"
MinPlayersString="最小プレイヤー（ボット）"
; EN: TranslocatorString="Translocator"
TranslocatorString="トランスロケーター"
; EN: WeaponStayString="Weapons Stay"
WeaponStayString="武器滞在"
ColumnHeadings=("Setting","Value")

[Browser_ServerListPageBase]
; EN: AddFavoriteButton.Caption="ADD FAVORITE"
AddFavoriteButton.Caption="お気に入りを追加"
; EN: BackButton.Caption="BACK"
BackButton.Caption="戻る"
; EN: JoinButton.Caption="JOIN"
JoinButton.Caption="加入"
; EN: RefreshButton.Caption="REFRESH LIST"
RefreshButton.Caption="リフレッシュリスト"
SpectateButton.Caption="SPECTATE"

[Browser_ServerListPageBuddy]
; EN: AddBuddyCaption="ADD BUDDY"
AddBuddyCaption="バディを追加"
; EN: RemoveBuddyCaption="REMOVE BUDDY"
RemoveBuddyCaption="バディを削除"

[Browser_ServerListPageFavorites]
; EN: RemoveFavoriteCaption="REMOVE FAVORITE"
RemoveFavoriteCaption="お気に入りを削除する"
; EN: AddIPCaption="ADD IP"
AddIPCaption="IPを追加"
; EN: RePingCaption="RE-PING LIST"
RePingCaption="再PINGリスト"

[Browser_ServerListPageMS]
; EN: QueryFinHead="Query Complete! Received: "
QueryFinHead="クエリ完了！受け取った： "
; EN: QueryFinTail=" Servers"
QueryFinTail=" サーバー"
; EN: PingRecvString="Pinging Servers"
PingRecvString="pingサーバー"
; EN: MustUpgradeString="Upgrade available. Please refresh the News page."
MustUpgradeString="アップグレード可能。ニュースページを更新してください。"
; EN: RefreshFinHead="Pinging Complete! "
RefreshFinHead="pingが完了しました！ "
; EN: RefreshFinMid=" Servers, "
RefreshFinMid=" サーバー、 "
; EN: RefreshFinTail=" Players"
RefreshFinTail=" プレイヤー"
; EN: RePingServersCaption="RE-PING LIST"
RePingServersCaption="再PINGリスト"
; EN: RefreshCaption="REFRESH LIST"
RefreshCaption="リフレッシュリスト"

[Browser_ServerListPageMSCustom]
; EN: MyGameTypeLabel.Caption="Game Type"
MyGameTypeLabel.Caption="ゲームの種類"

[Browser_ServersList]
IconDescriptions=("Passworded","Stats Enabled","Latest Version","Listen Server","Instagib","Standard Server","UT Classic")
ColumnHeadings=(,"Server Name","Map","Players","Ping")

[DefaultCrosshairs]
; EN: Crosshair=((FriendlyName="Cross (1)"),(FriendlyName="Cross (2)"),(FriendlyName="Cross (3)"),(FriendlyName="Cross (4)"),(FriendlyName="Cross (5)"),(FriendlyName="Dot"),(FriendlyName="Pointer"),(FriendlyName="Triad (1)"),(FriendlyName="Triad (2)"),(FriendlyName="Triad (3)"),(FriendlyName="Bracket (1)"),(FriendlyName="Bracket (2)"),(FriendlyName="Circle (1)"),(FriendlyName="Circle (2)"))
Crosshair=((FriendlyName="クロス（1）"),(FriendlyName="クロス（2）"),(FriendlyName="クロス（3）"),(FriendlyName="クロス（4）"),(FriendlyName="クロス（5）"),(FriendlyName="ドット"),(FriendlyName="ポインタ"),(FriendlyName="トライアド（1）"),(FriendlyName="トライアド（2）"),(FriendlyName="トライアド（3）"),(FriendlyName="ブラケット（1）"),(FriendlyName="ブラケット（2）"),(FriendlyName="サークル（1）"),(FriendlyName="サークル（2）"))

[ExtendedConsole]
; EN: AddedCurrentHead="Added Server:"
AddedCurrentHead="追加されたサーバー："
; EN: AddedCurrentTail="To Favorites!"
AddedCurrentTail="お気に入りへ！"
; EN: ServerFullMsg="Server is now full"
ServerFullMsg="サーバーがいっぱいになりました"
; EN: SMStateName[0]="Speech Menu"
SMStateName[0]="スピーチメニュー"
; EN: SMStateName[1]="Voice Chat"
SMStateName[1]="ボイスチャット"
; EN: SMStateName[2]="Acknowledge"
SMStateName[2]="認める"
; EN: SMStateName[3]="Friendly Fire"
SMStateName[3]="フレンドリー・ファイア"
; EN: SMStateName[4]="Order"
SMStateName[4]="注文"
; EN: SMStateName[5]="Other"
SMStateName[5]="他の"
; EN: SMStateName[6]="Taunt"
SMStateName[6]="挑発"
; EN: SMStateName[7]="Taunt Anim"
SMStateName[7]="挑発アニム"
; EN: SMStateName[8]="Player Select"
SMStateName[8]="プレイヤーセレクト"
; EN: SMChannelOptions[0]="Join"
SMChannelOptions[0]="加入"
; EN: SMChannelOptions[1]="Leave"
SMChannelOptions[1]="離れる"
; EN: SMChannelOptions[2]="Talk"
SMChannelOptions[2]="トーク"
; EN: SMAllString="[ALL]"
SMAllString="[全て]"
; EN: SMMoreString="[MORE]"
SMMoreString="[もっと]"

[GUIController]
; EN: DesignModeHints=((Key=" Key",Description="                                Description"),(Key=" (F1)",Description="                                View this help screen"),(Key=" Ctrl + Alt + D",Description="                      Toggles design mode"),(Key=" Ctrl + Alt + E",Description="                      Toggles property editor mode"),(Key=" [Ctrl +] H",Description="                          Toggles active/focused info"),(Key=" [Ctrl +] I",Description="                          Toggle interactive mode"),(Key=" [Ctrl +] P",Description="                          Toggles full MenuOwner chains for active/focused"),(Key=" [Ctrl +] C",Description="                          Copy MoveControl position to clipboard"),(Key=" [Ctrl +] X",Description="                          Export MoveControl to clipboard"),(Key=" [Ctrl +] U",Description="                          Refresh the property window in the designer"),(Key=" [Ctrl +] Up/Down/Left/Right",Description="         Reposition MoveControl using arrow keys"),(Key=" [Ctrl +] +/-",Description="                        Resize MoveControl vertically"),(Key=" [Ctrl +] Num+/Num-",Description="                  Resize selected component horizontally"),(Key=" [Ctrl +] WheelUp",Description="                    Set MoveControl to MoveControl's menuowner"),(Key=" [Ctrl +] WheenDown",Description="                  Set MoveControl to MoveControl's focused control"),(Key=" [(Ctrl + Alt) +] MouseX/Y+LMouse",Description="    Reposition MoveControl using mouse"),(Key=" (Shift)",Description="                             Hides all design mode indicators"),(Key=" (Ctrl + Alt)",Description="                        View focus chain"),(Key=" [Ctrl +] Tab",Description="                        Select new MoveControl"),(Key=" [Ctrl +] LMouse",Description="                     Select new MoveControl"))
DesignModeHints=((Key=" 鍵",Description="                                説明"),(Key=" （F1）",Description="                                このヘルプ画面を表示する"),(Key=" Ctrl + Alt + D",Description="                      デザインモードを切り替えます"),(Key=" Ctrl + Alt + E",Description="                      プロパティエディタモードを切り替えます"),(Key=" [Ctrl +] H",Description="                          アクティブ/フォーカスされた情報を切り替えます"),(Key=" [Ctrl +] I",Description="                          インタラクティブモードを切り替えます"),(Key=" [Ctrl +] P",Description="                          アクティブ/フォーカスの完全なMenuOwnerチェーンを切り替えます"),(Key=" [Ctrl +] C",Description="                          MoveControlの位置をクリップボードにコピーします"),(Key=" [Ctrl +] X",Description="                          MoveControlをクリップボードにエクスポート"),(Key=" [Ctrl +] U",Description="                          デザイナのプロパティウィンドウを更新します"),(Key=" [Ctrl +]上/下/左/右",Description="         矢印キーを使用してMoveControlの位置を変更します"),(Key=" [Ctrl +] +/-",Description="                        MoveControlのサイズを垂直方向に変更"),(Key=" [Ctrl +] Num + / Num-",Description="                  選択したコンポーネントのサイズを水平方向に変更"),(Key=" [Ctrl +] WheelUp",Description="                    MoveControlをMoveControlのmenuownerに設定します"),(Key=" [Ctrl +] WheenDown",Description="                  MoveControlをMoveControlのフォーカスされたコントロールに設定します"),(Key=" [（Ctrl + Alt）+] MouseX / Y + LMouse",Description="    マウスを使用してMoveControlの位置を変更します"),(Key=" （シフト）",Description="                             すべてのデザインモードインジケータを非表示にします"),(Key=" （Ctrl + Alt）",Description="                        フォーカスチェーンを表示"),(Key=" [Ctrl +]タブ",Description="                        新しいMoveControlを選択します"),(Key=" [Ctrl +] LMouse",Description="                     新しいMoveControlを選択します"))

[GUIQuestionPage]
ButtonNames=("Ok","Cancel","Retry","Continue","Yes","No","Abort","Ignore")

[HudBTeamDeathMatch]
; EN: LinkEstablishedMessage="LINK ESTABLISHED"
LinkEstablishedMessage="リンクが確立されました"

[HudBase]
InstructionFontName="UT2003Fonts.jFontMono800x600"
; EN: LevelActionLoading="LOADING..."
LevelActionLoading="読み込み中..."
; EN: LevelActionPaused="PAUSED"
LevelActionPaused="一時停止"
LevelActionFontName="UT2003Fonts.FontMedium"
; EN: WonMatchPostFix=" won the match!"
WonMatchPostFix=" 試合に勝った！"
; EN: WaitingToSpawn="Press [Fire] to join the match!"
WaitingToSpawn="[火]を押して試合に参加しましょう！"
; EN: AtMenus="Press [ESC] to close menu"
AtMenus="[ESC]を押してメニューを閉じます"
; EN: YouveWonTheMatch="You've won the match!"
YouveWonTheMatch="あなたは試合に勝ちました！"
; EN: YouveLostTheMatch="You've lost the match."
YouveLostTheMatch="あなたは試合に負けました。"
; EN: NowViewing="Now viewing"
NowViewing="今見ている"
; EN: ScoreText="Score"
ScoreText="スコア"
; EN: InitialViewingString="Press Fire to View a different Player"
InitialViewingString="別のプレーヤーを表示するには、Fireを押します"
ProgressFontName="UT2003Fonts.FontMedium"
FontArrayNames[0]="UT2003Fonts.FontEurostile37"
FontArrayNames[1]="UT2003Fonts.FontEurostile29"
FontArrayNames[2]="UT2003Fonts.FontEurostile24"
FontArrayNames[3]="UT2003Fonts.FontEurostile21"
FontArrayNames[4]="UT2003Fonts.FontEurostile17"
FontArrayNames[5]="UT2003Fonts.FontEurostile14"
FontArrayNames[6]="UT2003Fonts.FontEurostile12"
FontArrayNames[7]="UT2003Fonts.FontEurostile9"
FontArrayNames[8]="UT2003Fonts.FontSmallText"

[HudCTeamDeathMatch]
; EN: LinkEstablishedMessage="LINK ESTABLISHED"
LinkEstablishedMessage="リンクが確立されました"

[IRCLink]
; EN: InvalidAddressText="Invalid server address, aborting."
InvalidAddressText="サーバーアドレスが無効です。中止します。"
; EN: ErrorBindingText="Error binding local port, aborting."
ErrorBindingText="ローカルポートのバインド中にエラーが発生し、中止しました。"
; EN: ResolveFailedText="Failed to resolve server address, aborting."
ResolveFailedText="サーバーアドレスの解決に失敗し、中止しました。"
; EN: ConnectedText="Connected."
ConnectedText="接続されています。"
; EN: ConnectingToText="Connecting to"
ConnectingToText="に接続する"
; EN: TimeOutError="Timeout connecting to server."
TimeOutError="サーバーへの接続がタイムアウトしました。"
; EN: InviteString="invites you to join"
InviteString="参加するように招待します"
; EN: NickInUseText="Nickname Already In Use"
NickInUseText="ニックネームはすでに使用されています"
; EN: NickInvalidText="Nickname Is Invalid"
NickInvalidText="ニックネームが無効です"

[IRC_NewNick]
; EN: NewNickEntry.Caption="New Nickname: "
NewNickEntry.Caption="新しいニックネーム： "
; EN: OkButton.Caption="OK"
OkButton.Caption="わかった"

[IRC_Page]
; EN: HasLeftText="has left"
HasLeftText="去った"
; EN: HasJoinedText="has joined"
HasJoinedText="参加しました"
; EN: WasKickedByText="was kicked by"
WasKickedByText="によって蹴られた"
; EN: NowKnownAsText="is now known as"
NowKnownAsText="現在は"
; EN: QuitText="Quit"
QuitText="終了する"
; EN: SetsModeText="sets mode"
SetsModeText="モードを設定します"
; EN: NewTopicText="Topic"
NewTopicText="トピック"

[IRC_System]
; EN: NotInAChannelText="Not in a channel!"
NotInAChannelText="チャンネルではありません！"
; EN: KickedFromText="You were kicked from"
KickedFromText="あなたはから蹴られました"
; EN: ByText="by"
ByText="に"
; EN: IsAwayText="is away"
IsAwayText="離れています"
; EN: ConnectText="CONNECT"
ConnectText="接続"
; EN: DisconnectText="DISCONNECT"
DisconnectText="切断"
; EN: MyChannelLabel.Caption="Channel"
MyChannelLabel.Caption="チャネル"
; EN: MyJoinChannelButton.Caption="JOIN CHANNEL"
MyJoinChannelButton.Caption="チャンネルに参加"
; EN: MyRemoveChannelButton.Caption="REMOVE CHANNEL"
MyRemoveChannelButton.Caption="チャンネルを削除"
; EN: MyRemoveServerButton.Caption="REMOVE SERVER"
MyRemoveServerButton.Caption="サーバーを削除する"
; EN: MyServerLabel.Caption="Server"
MyServerLabel.Caption="サーバ"

[JoeTest]
; EN: TestButton1.Caption="Close Window"
TestButton1.Caption="ウィンドウを閉じる"
; EN: TitleText.Caption="Joe's Amazing Test GUI"
TitleText.Caption="ジョーのすばらしいテストGUI"

[JoeTestPanelA]
; EN: TestButtonA.Caption="Wow"
TestButtonA.Caption="わお"
; EN: TestButtonB.Caption="Damn"
TestButtonB.Caption="くそ"

[ScoreBoardDeathMatch]
; EN: RankText="RANK"
RankText="ランク"
; EN: PlayerText="PLAYER"
PlayerText="プレーヤー"
; EN: PointsText="SCORE"
PointsText="スコア"
; EN: TimeText="TIME:"
TimeText="時間："
; EN: PingText="PING:"
PingText="PING："
; EN: PLText="P/L:"
PLText="P / L："
; EN: DeathsText="DEATHS"
DeathsText="死亡者（数"
; EN: AdminText="ADMIN"
AdminText="管理者"
; EN: NetText="NET"
NetText="ネット"
; EN: FooterText="Elapsed Time:"
FooterText="経過時間："
; EN: MatchIDText="UT2004 Stats Match ID"
MatchIDText="UT2004統計マッチID"
; EN: OutText="OUT"
OutText="アウト"
; EN: OutFireText="   You are OUT. Fire to view other players."
OutFireText="   あなたはOUTです。他のプレイヤーを見るために発射します。"
; EN: ReadyText="READY"
ReadyText="準備"
; EN: NotReadyText="NOT RDY"
NotReadyText="RDYではありません"
; EN: SkillLevel[0]="NOVICE"
SkillLevel[0]="初心者"
; EN: SkillLevel[1]="AVERAGE"
SkillLevel[1]="平均"
; EN: SkillLevel[2]="EXPERIENCED"
SkillLevel[2]="経験豊富"
; EN: SkillLevel[3]="SKILLED"
SkillLevel[3]="スキル"
; EN: SkillLevel[4]="ADEPT"
SkillLevel[4]="アデプト"
; EN: SkillLevel[5]="MASTERFUL"
SkillLevel[5]="マスターフル"
; EN: SkillLevel[6]="INHUMAN"
SkillLevel[6]="インヒューマン"
SkillLevel[7]="GODLIKE"
; EN: MaxLives="MAX LIVES:"
MaxLives="MAX LIVES："
; EN: FragLimit="FRAG LIMIT:"
FragLimit="フラグ制限："
FPH="PPH"
; EN: GameType="GAME"
GameType="ゲーム"
; EN: MapName=" in "
MapName=" の "
; EN: Restart="   You were killed. Press Fire to respawn!"
Restart="   あなたは殺されました。火を押してリスポーンします！"
; EN: Continue=" Press [Fire] to continue!"
Continue=" [Fire]を押して続行してください！"
; EN: Ended="The match has ended."
Ended="試合は終了しました。"
; EN: TimeLimit="REMAINING TIME:"
TimeLimit="残り時間："
Spacer=" "

[ScoreBoardTeamDeathMatch]
; EN: FragLimit="SCORE LIMIT:"
FragLimit="スコア制限："

[ServerBrowser]
; EN: MutantTypeName="Mutant"
MutantTypeName="変異体"
; EN: InvasionTypeName="Invasion"
InvasionTypeName="侵入"
; EN: LMSTypeName="Last Man Standing"
LMSTypeName="本物の男"
MutantType="xMutantGame"
; EN: InvasionType="Invasion"
InvasionType="侵入"
LMSType="xLastManStanding"
; EN: MyBRServerListPage.PageCaption="Bombing Run"
MyBRServerListPage.PageCaption="爆撃実行"
; EN: MyBuddiesPage.PageCaption="Buddies"
MyBuddiesPage.PageCaption="仲間"
MyCTFServerListPage.PageCaption="CTF"
; EN: MyCustomServerListPage.PageCaption="Custom"
MyCustomServerListPage.PageCaption="カスタム"
MyDMServerListPage.PageCaption="DM"
; EN: MyDomServerListPage.PageCaption="Double Dom"
MyDomServerListPage.PageCaption="ダブルドム"
; EN: MyFavoritesPage.PageCaption="Favorites"
MyFavoritesPage.PageCaption="お気に入り"
; EN: MyIRCPage.PageCaption="Chat"
MyIRCPage.PageCaption="チャット"
MyLANPage.PageCaption="LAN"
; EN: MyMOTDPage.PageCaption="News"
MyMOTDPage.PageCaption="ニュース"
; EN: MyPrefsPage.PageCaption="Filter"
MyPrefsPage.PageCaption="フィルター"
; EN: MyTDMServerListPage.PageCaption="Team DM"
MyTDMServerListPage.PageCaption="チームDM"
; EN: ServerBrowserHeader.Caption="Server Browser"
ServerBrowserHeader.Caption="サーバーブラウザ"

[Tab_AdminPlayerList]
; EN: AdminPlayerBan.Caption="Ban"
AdminPlayerBan.Caption="禁止"
; EN: AdminPlayerBan.Hint="Ban this player"
AdminPlayerBan.Hint="このプレーヤーを禁止する"
; EN: AdminPlayerKick.Caption="Kick"
AdminPlayerKick.Caption="キック"
; EN: AdminPlayerKick.Hint="Kick this Player"
AdminPlayerKick.Hint="このプレーヤーを蹴る"

[Tab_AudioSettings]
; EN: AudioModes[0]="Software 3D Audio"
AudioModes[0]="ソフトウェア3Dオーディオ"
; EN: AudioModes[1]="Hardware 3D Audio"
AudioModes[1]="ハードウェア3Dオーディオ"
; EN: AudioModes[2]="Hardware 3D Audio + EAX"
AudioModes[2]="ハードウェア3Dオーディオ+ EAX"
; EN: AudioModes[3]="Safe Mode"
AudioModes[3]="セーフモード"
; EN: VoiceModes[0]="All"
VoiceModes[0]="全て"
; EN: VoiceModes[1]="No auto-taunts"
VoiceModes[1]="自動挑発なし"
; EN: VoiceModes[2]="No taunts"
VoiceModes[2]="罵倒はありません"
; EN: VoiceModes[3]="None"
VoiceModes[3]="なし"
; EN: AnnounceModes[0]="None"
AnnounceModes[0]="なし"
; EN: AnnounceModes[1]="Minimal"
AnnounceModes[1]="最小限"
; EN: AnnounceModes[2]="All"
AnnounceModes[2]="全て"
; EN: AudioAnnounce.Caption="Announcements"
AudioAnnounce.Caption="お知らせ"
; EN: AudioAnnounce.Hint="Adjusts the amount of in-game announcements."
AudioAnnounce.Hint="ゲーム内アナウンスの量を調整します。"
; EN: AudioAnnouncerPack.Caption="Announcer Voice"
AudioAnnouncerPack.Caption="アナウンサーの声"
; EN: AudioAnnouncerPack.Hint="Select the Announcer for tonight's game."
AudioAnnouncerPack.Hint="今夜のゲームのアナウンサーを選択します。"
; EN: AudioAutoTaunt.Caption="Auto-Taunt"
AudioAutoTaunt.Caption="自動挑発"
; EN: AudioAutoTaunt.Hint="Enables your in-game player to automatically taunt opponents."
AudioAutoTaunt.Hint="ゲーム内のプレーヤーが自動的に対戦相手を挑発できるようにします。"
; EN: AudioEffectsVolumeLabel.Caption="Effects Volume"
AudioEffectsVolumeLabel.Caption="エフェクトボリューム"
; EN: AudioEffectsVolumeSlider.Hint="Changes the volume of all in game sound effects."
AudioEffectsVolumeSlider.Hint="ゲーム内のすべての効果音の音量を変更します。"
; EN: AudioLowDetail.Caption="Low Sound Detail"
AudioLowDetail.Caption="低音の詳細"
; EN: AudioLowDetail.Hint="Lowers quality of sound."
AudioLowDetail.Hint="音質を低下させます。"
; EN: AudioMatureTaunts.Caption="Mature Taunts"
AudioMatureTaunts.Caption="成熟した挑発"
; EN: AudioMatureTaunts.Hint="Enables off-color commentary."
AudioMatureTaunts.Hint="オフカラーコメンテーターを有効にします。"
; EN: AudioMessageBeep.Caption="Message Beep"
AudioMessageBeep.Caption="メッセージビープ音"
; EN: AudioMessageBeep.Hint="Enables a beep when receiving a text message from other players."
AudioMessageBeep.Hint="他のプレイヤーからテキストメッセージを受信したときにビープ音を鳴らします。"
; EN: AudioMode.Caption="Audio Mode"
AudioMode.Caption="オーディオモード"
; EN: AudioMode.Hint="Changes the audio system mode."
AudioMode.Hint="オーディオシステムモードを変更します。"
; EN: AudioMusicVolumeLabel.Caption="Music Volume"
AudioMusicVolumeLabel.Caption="ミュージックボリューム"
; EN: AudioMusicVolumeSlider.Hint="Changes the volume of the background music."
AudioMusicVolumeSlider.Hint="バックグラウンドミュージックの音量を変更します。"
; EN: AudioPlayVoices.Caption="Play Voices"
AudioPlayVoices.Caption="声を再生"
; EN: AudioPlayVoices.Hint="Defines the types of voice messages to play."
AudioPlayVoices.Hint="再生する音声メッセージのタイプを定義します。"
; EN: AudioReverseStereo.Caption="Reverse Stereo"
AudioReverseStereo.Caption="リバースステレオ"
; EN: AudioReverseStereo.Hint="Reverses the left and right audio channels."
AudioReverseStereo.Hint="左右のオーディオチャンネルを反転します。"
; EN: AudioVoiceVolumeLabel.Caption="Announcer Volume"
AudioVoiceVolumeLabel.Caption="アナウンサーボリューム"
; EN: AudioVoiceVolumeSlider.Hint="Changes the volume of all in game voice messages."
AudioVoiceVolumeSlider.Hint="ゲーム内のすべての音声メッセージの音量を変更します。"

[Tab_ControlSettings]
; EN: Bindings=((KeyLabel="Movement"),(KeyLabel="Forward"),(KeyLabel="Backward"),(KeyLabel="Strafe Left"),(KeyLabel="Strafe Right"),(KeyLabel="Jump"),(KeyLabel="Walk"),(KeyLabel="Crouch"),(KeyLabel="Strafe Toggle"),(KeyLabel="Looking"),(KeyLabel="Turn Left"),(KeyLabel="Turn Right"),(KeyLabel="Look Up"),(KeyLabel="Look Down"),(KeyLabel="Center View"),(KeyLabel="Weapons"),(KeyLabel="Fire"),(KeyLabel="Alt-Fire"),(KeyLabel="Throw Weapon"),(KeyLabel="Best Weapon"),(KeyLabel="Next Weapon"),(KeyLabel="Prev Weapon"),(KeyLabel="Last Weapon"),(KeyLabel="Weapon Selection"),(KeyLabel="Super Weapon"),(KeyLabel="Shield Gun"),(KeyLabel="Assault Rifle"),(KeyLabel="Bio-Rifle"),(KeyLabel="Shock Rifle"),(KeyLabel="Link Gun"),(KeyLabel="Minigun"),(KeyLabel="Flak Cannon"),(KeyLabel="Rocket Launcher"),(KeyLabel="Lightning Rifle"),(KeyLabel="Translocator"),(KeyLabel="Communication"),(KeyLabel="Say"),(KeyLabel="Team Say"),(KeyLabel="Speech Menu"),(KeyLabel="Taunts"),(KeyLabel="Pelvic Thrust"),(KeyLabel="Ass Smack"),(KeyLabel="Throat Cut"),(KeyLabel="Hud"),(KeyLabel="Grow Hud"),(KeyLabel="Shrink Hud"),(KeyLabel="Miscellaneous"),(KeyLabel="Pause"),(KeyLabel="Screenshot"),(KeyLabel="Menu"),(KeyLabel="ScoreBoard"),(KeyLabel="ScoreBoard Toggle"),(KeyLabel="In Game Chat"),(KeyLabel="Server Info"))
Bindings=((KeyLabel="動き"),(KeyLabel="前方"),(KeyLabel="後方"),(KeyLabel="ストレイフ左"),(KeyLabel="Strafe Right"),(KeyLabel="ジャンプ"),(KeyLabel="歩く"),(KeyLabel="しゃがむ"),(KeyLabel="Strafe Toggle"),(KeyLabel="見て"),(KeyLabel="左折してください"),(KeyLabel="右折"),(KeyLabel="調べる"),(KeyLabel="見下ろす"),(KeyLabel="中心ビュー"),(KeyLabel="兵器"),(KeyLabel="火"),(KeyLabel="Alt-Fire"),(KeyLabel="武器を投げる"),(KeyLabel="最高の武器"),(KeyLabel="次の武器"),(KeyLabel="前の武器"),(KeyLabel="最後の武器"),(KeyLabel="武器の選択"),(KeyLabel="スーパーウェポン"),(KeyLabel="シールドガン"),(KeyLabel="アサルトライフル"),(KeyLabel="バイオライフル"),(KeyLabel="ショックライフル"),(KeyLabel="リンクガン"),(KeyLabel="ミニガン"),(KeyLabel="フラックキャノン"),(KeyLabel="ロケットランチャー"),(KeyLabel="ライトニングライフル"),(KeyLabel="トランスロケーター"),(KeyLabel="コミュニケーション"),(KeyLabel="言う"),(KeyLabel="チームは言う"),(KeyLabel="スピーチメニュー"),(KeyLabel="挑発"),(KeyLabel="骨盤スラスト"),(KeyLabel="お尻のスマック"),(KeyLabel="スロートカット"),(KeyLabel="Hud"),(KeyLabel="Hudを育てる"),(KeyLabel="シュリンクハッド"),(KeyLabel="その他"),(KeyLabel="一時停止"),(KeyLabel="スクリーンショット"),(KeyLabel="メニュー"),(KeyLabel="スコアボード"),(KeyLabel="スコアボードの切り替え"),(KeyLabel="ゲームチャットで"),(KeyLabel="サーバー情報"))
Labels=("Movement","Forward","Backward","Strafe Left","Strafe Right","Jump","Walk","Crouch","Strafe Toggle","Looking","Turn Left","Turn Right","Look Up","Look Down","Center View","Weapons","Fire","Alt-Fire","Throw Weapon","Best Weapon","Next Weapon","Prev Weapon","Last Weapon","Weapon Selection","Super Weapon","Shield Gun","Assault Rifle","Bio-Rifle","Shock Rifle","Link Gun","Minigun","Flak Cannon","Rocket Launcher","Lightning Rifle","Translocator","Communication","Say","Team Say","Speech Menu","Taunts","Pelvic Thrust","Ass Smack","Throat Cut","Hud","Grow Hud","Shrink Hud","Miscellaneous","Pause","Screenshot","Menu","ScoreBoard","ScoreBoard Toggle","In Game Chat","Server Info")
Header="["
; EN: Footer="] Perform this action "
Footer="]このアクションを実行します "
; EN: KeyConfigAliasLabel.Caption="Action"
KeyConfigAliasLabel.Caption="アクション"
; EN: KeyConfigAliasLabel2.Caption="Key 1"
KeyConfigAliasLabel2.Caption="キー1"
; EN: KeyConfigAliasLabel3.Caption="Key 2"
KeyConfigAliasLabel3.Caption="キー2"
; EN: KeyConfigKeyList.Hint="Select Control to config"
KeyConfigKeyList.Hint="[制御]を選択して構成します"
; EN: KeyResetButton.Caption="RESET"
KeyResetButton.Caption="リセット"
; EN: KeyResetButton.Hint="Reset keys to default values"
KeyResetButton.Hint="キーをデフォルト値にリセット"

[Tab_DetailSettings]
; EN: DetailLevels[0]="Lowest"
DetailLevels[0]="最低"
; EN: DetailLevels[1]="Lower"
DetailLevels[1]="低い"
; EN: DetailLevels[2]="Low"
DetailLevels[2]="低い"
; EN: DetailLevels[3]="Normal"
DetailLevels[3]="普通"
; EN: DetailLevels[4]="High"
DetailLevels[4]="高い"
; EN: DetailLevels[5]="Higher"
DetailLevels[5]="より高い"
; EN: DetailLevels[6]="Highest"
DetailLevels[6]="最高"
; EN: DetailActorDetail.Caption="World Detail"
DetailActorDetail.Caption="ワールドディテール"
; EN: DetailActorDetail.Hint="Changes the level of detail used for optional geometry and effects."
DetailActorDetail.Hint="オプションのジオメトリとエフェクトに使用される詳細レベルを変更します。"
; EN: DetailBlob.Caption="Use Blob Shadows"
DetailBlob.Caption="BlobShadowsを使用する"
; EN: DetailBlob.Hint="Enable blob shadows.  Recommended for low-performance PCs."
DetailBlob.Hint="ブロブシャドウを有効にします。高性能PCに推奨されます。"
; EN: DetailCharacterDetail.Caption="Character Detail"
DetailCharacterDetail.Caption="キャラクターの詳細"
; EN: DetailCharacterDetail.Hint="Changes how much character detail will be rendered."
DetailCharacterDetail.Hint="レンダリングされる文字の詳細の量を変更します。"
; EN: DetailCharacterShadows.Caption="Character Shadows"
DetailCharacterShadows.Caption="キャラクターシャドウ"
; EN: DetailCharacterShadows.Hint="Enables character shadows."
DetailCharacterShadows.Hint="キャラクターシャドウを有効にします。"
; EN: DetailCoronas.Caption="Coronas"
DetailCoronas.Caption="コロナス"
; EN: DetailCoronas.Hint="Enables coronas."
DetailCoronas.Hint="コロナを有効にします。"
; EN: DetailDecalStay.Caption="Decal Stay"
DetailDecalStay.Caption="デカールステイ"
; EN: DetailDecalStay.Hint="Changes how long weapon scarring effects stay around."
DetailDecalStay.Hint="武器の傷跡の効果が持続する時間を変更します。"
; EN: DetailDecals.Caption="Decals"
DetailDecals.Caption="デカール"
; EN: DetailDecals.Hint="Enables weapon scarring effects."
DetailDecals.Hint="武器の傷跡効果を有効にします。"
; EN: DetailDecoLayers.Caption="Foliage"
DetailDecoLayers.Caption="葉"
; EN: DetailDecoLayers.Hint="Enables grass and other decorative foliage."
DetailDecoLayers.Hint="草や他の装飾的な葉を可能にします。"
; EN: DetailDetailTextures.Caption="Detail Textures"
DetailDetailTextures.Caption="詳細テクスチャ"
; EN: DetailDetailTextures.Hint="Enables detail textures."
DetailDetailTextures.Hint="詳細テクスチャを有効にします。"
; EN: DetailDynamicLighting.Caption="Dynamic Lighting"
DetailDynamicLighting.Caption="ダイナミックライティング"
; EN: DetailDynamicLighting.Hint="Enables dynamic lights."
DetailDynamicLighting.Hint="ダイナミックライトを有効にします。"
; EN: DetailPhysics.Caption="Physics Detail"
DetailPhysics.Caption="物理学の詳細"
; EN: DetailPhysics.Hint="Changes the physics simulation level of detail."
DetailPhysics.Hint="物理シミュレーションの詳細レベルを変更します。"
; EN: DetailProjectors.Caption="Projectors"
DetailProjectors.Caption="プロジェクター"
; EN: DetailProjectors.Hint="Enables Projectors."
DetailProjectors.Hint="プロジェクターを有効にします。"
; EN: DetailTrilinear.Caption="Trilinear Filtering"
DetailTrilinear.Caption="トリリニアフィルタリング"
; EN: DetailTrilinear.Hint="Enable trilinear filtering, recommended for high-performance PCs."
DetailTrilinear.Hint="高性能PCに推奨されるトライリニアフィルタリングを有効にします。"
; EN: DetailWorldDetail.Caption="Texture Detail"
DetailWorldDetail.Caption="テクスチャの詳細"
; EN: DetailWorldDetail.Hint="Changes how much world detail will be rendered."
DetailWorldDetail.Hint="レンダリングされるワールドの詳細の量を変更します。"

[Tab_GameSettings]
; EN: CrosshairNames[0]="Hidden"
CrosshairNames[0]="隠れた"
; EN: CrosshairNames[1]="Cross (1)"
CrosshairNames[1]="クロス（1）"